 %block AtomicCoordinatesAndAtomicSpecies                                                                                       
   5.0000000  11.3896408   0.7135732  3 Celec                           
   5.0000000  10.1596403   1.4237121  3 Celec                           
   5.0000000  12.6196394   1.4237121  3 Celec                           
   5.0000000  10.1596403   2.8439944  3 Celec                           
   5.0000000  12.6196394   2.8439944  3 Celec                           
   5.0000000  11.3896408   3.5541334  3 Celec                           
   5.0000000  13.8496399   0.7135732  3 Celec                           
   5.0000000  16.3096409   0.7135732  3 Celec                           
   5.0000000  15.0796404   1.4237121  3 Celec                           
   5.0000000  15.0796404   2.8439944  3 Celec                           
   5.0000000  13.8496399   3.5541334  3 Celec                           
   5.0000000  16.3096409   3.5541334  3 Celec                           
   5.0000000  18.7696400   0.7135732  3 Celec                           
   5.0000000  17.5396385   1.4237121  3 Celec                           
   5.0000000  19.9996395   1.4237121  3 Celec                           
   5.0000000  17.5396385   2.8439944  3 Celec                           
   5.0000000  19.9996395   2.8439944  3 Celec                           
   5.0000000  18.7696400   3.5541334  3 Celec                           
   5.0000000  21.2296391   0.7135732  3 Celec                           
   5.0000000  22.4596405   1.4237121  3 Celec                           
   5.0000000  22.4596405   2.8439944  3 Celec                           
   5.0000000  21.2296391   3.5541334  3 Celec                           
   5.0000000  23.6896400   0.7135732  3 Celec                           
   5.0000000  26.1496391   0.7135732  3 Celec                           
   5.0000000  24.9196415   1.4237121  3 Celec                           
   5.0000000  24.9196415   2.8439944  3 Celec                           
   5.0000000  23.6896400   3.5541334  3 Celec                           
   5.0000000  26.1496391   3.5541334  3 Celec                           
   5.0000000  28.6096401   0.7135732  3 Celec                           
   5.0000000  27.3796387   1.4237121  3 Celec                           
   5.0000000  29.8396397   1.4237121  3 Celec                           
   5.0000000  27.3796387   2.8439944  3 Celec                           
   5.0000000  29.8396397   2.8439944  3 Celec                           
   5.0000000  28.6096401   3.5541334  3 Celec                           
   5.0000000   9.2155600   0.8786536  4 H                               
   5.0000000   9.2155600   3.3890574  4 H                               
   5.0000000  30.7837200   0.8786536  4 H                               
   5.0000000  30.7837200   3.3890574  4 H                               
 %endblock AtomicCoordinatesAndAtomicSpecies                                                                                    
