POSCAR(VASP)_with_position(SIESTA)      
   1.00000000000000     
     9.9480804527637563    0.0000000000000000    0.0000000000000000
     0.0000000000000000   59.8459992981065838   -0.0000000000000000
     0.0000000000000000   -0.0000000000000000  127.6531837575836050
   C    H    C 
   580   136   440
Direct
  0.5000000000000000  0.2064762811502830  0.0113538074955318
  0.5000000000000000  0.2064714916466051  0.0220339796854733
  0.5000000000000000  0.2267955064410795  0.0056539794361191
  0.5000000000000000  0.2679123502363860  0.0055688869482549
  0.5000000000000000  0.2473221520067176  0.0111378245769274
  0.5000000000000000  0.2473221080456217  0.0222524027040684
  0.5000000000000000  0.3088749924625760  0.0055891523521357
  0.5000000000000000  0.2883874830584000  0.0111241080223714
  0.5000000000000000  0.3294015117388385  0.0111410623558824
  0.5000000000000000  0.2883795150625094  0.0222638315973109
  0.5000000000000000  0.3294000782555040  0.0222473277223093
  0.5000000000000000  0.2064739922985787  0.0446908289814946
  0.5000000000000000  0.2267934875321709  0.0277418366120670
  0.5000000000000000  0.2679148231093960  0.0278274247995637
  0.5000000000000000  0.2267952825812989  0.0389776516590049
  0.5000000000000000  0.2679152229464371  0.0388892644405910
  0.5000000000000000  0.2473246306233826  0.0444795045402742
  0.5000000000000000  0.3088745133161770  0.0278076157632040
  0.5000000000000000  0.3088750430102900  0.0389120681023591
  0.5000000000000000  0.2883838889347346  0.0444613796597093
  0.5000000000000000  0.3293996517258864  0.0444830066404146
  0.5000000000000000  0.2064756329073177  0.0553614710278485
  0.5000000000000000  0.2064770635586037  0.0780096595447041
  0.5000000000000000  0.2473223084372248  0.0555743655101382
  0.5000000000000000  0.2267979734212292  0.0610696516328681
  0.5000000000000000  0.2679159501240067  0.0611514844084785
  0.5000000000000000  0.2267913632014933  0.0723189183132353
  0.5000000000000000  0.2679152269926417  0.0722336631315739
  0.5000000000000000  0.2473266780239848  0.0777976410323456
  0.5000000000000000  0.2883816974142659  0.0555912043317715
  0.5000000000000000  0.3294018059257345  0.0555709404537394
  0.5000000000000000  0.3088776460010169  0.0611364868799907
  0.5000000000000000  0.3088693981636168  0.0722517417413675
  0.5000000000000000  0.2883814071859367  0.0777804190594120
  0.5000000000000000  0.3294036404600785  0.0778015767482541
  0.5000000000000000  0.2064793853552258  0.0887079300193530
  0.5000000000000000  0.2473240850539127  0.0889197637814923
  0.5000000000000000  0.2267911113462906  0.0943969892816843
  0.5000000000000000  0.2679203038347290  0.0944830594444180
  0.5000000000000000  0.2267890425864760  0.1056540684253558
  0.5000000000000000  0.2679195002812251  0.1055701167668146
  0.5000000000000000  0.2883759061771282  0.0889372642036067
  0.5000000000000000  0.3294003792530880  0.0889159677718489
  0.5000000000000000  0.3088727462016155  0.0944673758114181
  0.5000000000000000  0.3088722440240804  0.1055828093255601
  0.5000000000000000  0.2064837225965687  0.1113487097064077
  0.5000000000000000  0.2064926188054318  0.1220389262950833
  0.5000000000000000  0.2473236919241088  0.1111429307328694
  0.5000000000000000  0.2473183771572686  0.1222421842619935
  0.5000000000000000  0.2267860714940556  0.1277156842963986
  0.5000000000000000  0.2679329428524542  0.1278090121678139
  0.5000000000000000  0.2883816376992673  0.1111193471811288
  0.5000000000000000  0.3294111342039316  0.1111410252085455
  0.5000000000000000  0.2883663088014903  0.1222681826523190
  0.5000000000000000  0.3293963153725627  0.1222445267923261
  0.5000000000000000  0.3088840840377713  0.1277965858161618
  0.5000000000000000  0.2065067817561876  0.1446058582921636
  0.5000000000000000  0.2066233354802454  0.1555387875545709
  0.5000000000000000  0.2267482231658832  0.1390096564727463
  0.5000000000000000  0.2679268768582236  0.1389155558300131
  0.5000000000000000  0.2473279098382766  0.1444351134804430
  0.5000000000000000  0.2474080832186601  0.1557109374472910
  0.5000000000000000  0.2266450362387512  0.1610270526255364
  0.5000000000000000  0.2678868640748752  0.1610297786470366
  0.5000000000000000  0.3088634919663440  0.1389234421733865
  0.5000000000000000  0.2883726569241918  0.1444034671489036
  0.5000000000000000  0.3294317734777261  0.1444182675022914
  0.5000000000000000  0.2883839172171406  0.1557500141134700
  0.5000000000000000  0.3293667060677111  0.1557316706450701
  0.5000000000000000  0.3089011445963728  0.1610226886715385
  0.5000000000000000  0.2066233354802454  0.8445141753557034
  0.5000000000000000  0.2065067817561876  0.8554471593803499
  0.5000000000000000  0.2266450362387512  0.8390269742368430
  0.5000000000000000  0.2678868640748752  0.8390242482153427
  0.5000000000000000  0.2474080832186601  0.8443420254629834
  0.5000000000000000  0.2473279098382766  0.8556179041920705
  0.5000000000000000  0.3089011445963728  0.8390313381908410
  0.5000000000000000  0.2883839172171406  0.8443029487968043
  0.5000000000000000  0.3293667060677111  0.8443212922652042
  0.5000000000000000  0.2883726569241918  0.8556495505236099
  0.5000000000000000  0.3294317734777261  0.8556347501702222
  0.5000000000000000  0.2064926188054318  0.8780150614514139
  0.5000000000000000  0.2267482231658832  0.8610443469201081
  0.5000000000000000  0.2679268768582236  0.8611384475628414
  0.5000000000000000  0.2267860714940556  0.8723383034500917
  0.5000000000000000  0.2679329428524542  0.8722449755786763
  0.5000000000000000  0.2473183771572686  0.8778118034845038
  0.5000000000000000  0.3088634919663440  0.8611305612194680
  0.5000000000000000  0.3088840840377713  0.8722574019303284
  0.5000000000000000  0.2883663088014903  0.8777858050941784
  0.5000000000000000  0.3293963153725627  0.8778094609541712
  0.5000000000000000  0.2064837225965687  0.8887053249791468
  0.5000000000000000  0.2064793853552258  0.9113457839159342
  0.5000000000000000  0.2473236919241088  0.8889111039526849
  0.5000000000000000  0.2267890425864760  0.8943988944849185
  0.5000000000000000  0.2679195002812251  0.8944828461434599
  0.5000000000000000  0.2267911113462906  0.9056563178483893
  0.5000000000000000  0.2679203038347290  0.9055702476856556
  0.5000000000000000  0.2473240850539127  0.9111339501537949
  0.5000000000000000  0.2883816376992673  0.8889346875044256
  0.5000000000000000  0.3294111342039316  0.8889130094770089
  0.5000000000000000  0.3088722440240804  0.8944701535847143
  0.5000000000000000  0.3088727462016155  0.9055859313186555
  0.5000000000000000  0.2883759061771282  0.9111164497316805
  0.5000000000000000  0.3294003792530880  0.9111377461634382
  0.5000000000000000  0.2064770635586037  0.9220439370429298
  0.5000000000000000  0.2473266780239848  0.9222559555552882
  0.5000000000000000  0.2267913632014933  0.9277351789577404
  0.5000000000000000  0.2679152269926417  0.9278204341394019
  0.5000000000000000  0.2267979734212292  0.9389843908758685
  0.5000000000000000  0.2679159501240067  0.9389025581002580
  0.5000000000000000  0.2883814071859367  0.9222731775282218
  0.5000000000000000  0.3294036404600785  0.9222520198393798
  0.5000000000000000  0.3088693981636168  0.9278023555296082
  0.5000000000000000  0.3088776460010169  0.9389175556287458
  0.5000000000000000  0.2064756329073177  0.9446919612730605
  0.5000000000000000  0.2064739922985787  0.9553624859717541
  0.5000000000000000  0.2473223084372248  0.9444790667907710
  0.5000000000000000  0.2473246306233826  0.9555738104129745
  0.5000000000000000  0.2267952825812989  0.9610760700994573
  0.5000000000000000  0.2679152229464371  0.9611644573178711
  0.5000000000000000  0.2883816974142659  0.9444622279691377
  0.5000000000000000  0.3294018059257345  0.9444824918471698
  0.5000000000000000  0.2883838889347346  0.9555919352935394
  0.5000000000000000  0.3293996517258864  0.9555703083128341
  0.5000000000000000  0.3088750430102900  0.9611416536561030
  0.5000000000000000  0.2064714916466051  0.9780201254086845
  0.5000000000000000  0.2064762811502830  0.9887001802509585
  0.5000000000000000  0.2267934875321709  0.9723117130364956
  0.5000000000000000  0.2679148231093960  0.9722261248489988
  0.5000000000000000  0.2473221080456217  0.9778017023900893
  0.5000000000000000  0.2473221520067176  0.9889161631695629
  0.5000000000000000  0.2267955064410795  0.9943994685111401
  0.5000000000000000  0.2679123502363860  0.9944845609990043
  0.5000000000000000  0.3088745133161770  0.9722459338853584
  0.5000000000000000  0.2883795150625094  0.9777902734968469
  0.5000000000000000  0.3294000782555040  0.9778067773718485
  0.5000000000000000  0.2883874830584000  0.9889298797241188
  0.5000000000000000  0.3294015117388385  0.9889129253906079
  0.5000000000000000  0.3088749924625760  0.9944642955951235
  0.5000000000000000  0.3498819357900801  0.0055930527096346
  0.5000000000000000  0.3703749057065632  0.0111374940183570
  0.5000000000000000  0.3703691990385732  0.0222505574075615
  0.5000000000000000  0.3908963691687852  0.0055859805910985
  0.5000000000000000  0.4318771189598735  0.0055880570683953
  0.5000000000000000  0.4113889585497998  0.0111330872976015
  0.5000000000000000  0.4113876296514095  0.0222546874071277
  0.5000000000000000  0.4728882587575726  0.0055884931554293
  0.5000000000000000  0.4523829501763778  0.0111388958768077
  0.5000000000000000  0.4933840166666670  0.0111365423254572
  0.5000000000000000  0.4523833017998160  0.0222508929215203
  0.5000000000000000  0.4933840166666670  0.0222520027393351
  0.5000000000000000  0.3498799840384912  0.0278040948544022
  0.5000000000000000  0.3498793479285521  0.0389132663785557
  0.5000000000000000  0.3703737791554370  0.0444749971569284
  0.5000000000000000  0.3908979907742319  0.0278111487249351
  0.5000000000000000  0.4318776592021797  0.0278092401749026
  0.5000000000000000  0.3908991087502576  0.0389079707760430
  0.5000000000000000  0.4318733030037659  0.0389088134998894
  0.5000000000000000  0.4113882027101594  0.0444745826075587
  0.5000000000000000  0.4728905833873837  0.0278087095482673
  0.5000000000000000  0.4728921833774248  0.0389101743719103
  0.5000000000000000  0.4523863261849319  0.0444752720950623
  0.5000000000000000  0.4933840166666670  0.0444765944561238
  0.5000000000000000  0.3703692701808779  0.0555770910828534
  0.5000000000000000  0.3498784667720338  0.0611278432091896
  0.5000000000000000  0.3498740791024992  0.0722585242200687
  0.5000000000000000  0.3703704500177691  0.0777965542219962
  0.5000000000000000  0.4113863316221765  0.0555780964067436
  0.5000000000000000  0.3909017713724064  0.0611396421628553
  0.5000000000000000  0.4318700791820292  0.0611345232704713
  0.5000000000000000  0.3908952010945810  0.0722486388996850
  0.5000000000000000  0.4318726863499170  0.0722516897489327
  0.5000000000000000  0.4113890190948283  0.0777953623955085
  0.5000000000000000  0.4523838790090972  0.0555757145446040
  0.5000000000000000  0.4933840166666670  0.0555750788528778
  0.5000000000000000  0.4728930000772568  0.0611361215328812
  0.5000000000000000  0.4728900460912331  0.0722516106499385
  0.5000000000000000  0.4523845761606761  0.0777976437237861
  0.5000000000000000  0.4933840166666670  0.0777984771221937
  0.5000000000000000  0.3703639435455791  0.0889207633575454
  0.5000000000000000  0.3498791122328869  0.0944585995393455
  0.5000000000000000  0.3498679008570761  0.1055939423059954
  0.5000000000000000  0.4113865110123590  0.0889224187096615
  0.5000000000000000  0.3908995451319036  0.0944723919481096
  0.5000000000000000  0.4318757938172750  0.0944677782686345
  0.5000000000000000  0.3908944722364464  0.1055780761832349
  0.5000000000000000  0.4318667214416392  0.1055848090779977
  0.5000000000000000  0.4523818680369321  0.0889200481558632
  0.5000000000000000  0.4933840166666670  0.0889193244463615
  0.5000000000000000  0.4728907932335794  0.0944691683521993
  0.5000000000000000  0.4728943345955715  0.1055824503199542
  0.5000000000000000  0.3703753044005690  0.1111415397429492
  0.5000000000000000  0.3703505561565462  0.1222451124306817
  0.5000000000000000  0.3498863803221969  0.1277878175714155
  0.5000000000000000  0.4113926681583675  0.1111418242933602
  0.5000000000000000  0.4113850169967097  0.1222450101381231
  0.5000000000000000  0.3909129015582841  0.1278175210292468
  0.5000000000000000  0.4318807417741550  0.1278056404310168
  0.5000000000000000  0.4523849186116010  0.1111451199876515
  0.5000000000000000  0.4933840166666670  0.1111427677523022
  0.5000000000000000  0.4523748899674379  0.1222437322534961
  0.5000000000000000  0.4933840166666670  0.1222451623578768
  0.5000000000000000  0.4729000586380070  0.1278113784873971
  0.5000000000000000  0.3498384010927896  0.1389338886357380
  0.5000000000000000  0.3703830314296839  0.1444522220968635
  0.5000000000000000  0.3699951017534112  0.1556442377807559
  0.5000000000000000  0.3499862030801736  0.1609793360843168
  0.5000000000000000  0.3908600843582293  0.1389003633701808
  0.5000000000000000  0.4318442886253151  0.1389134661246065
  0.5000000000000000  0.4114311397507450  0.1444652704771460
  0.5000000000000000  0.4114181480790844  0.1555892916052427
  0.5000000000000000  0.3909987460804513  0.1613065707286407
  0.5000000000000000  0.4318483700172270  0.1611410243199045
  0.5000000000000000  0.4728911678864267  0.1389063990686939
  0.5000000000000000  0.4523956722738809  0.1444815630699757
  0.5000000000000000  0.4933840166666670  0.1444712060481907
  0.5000000000000000  0.4524071168212582  0.1555681130401779
  0.5000000000000000  0.4933840166666670  0.1555792463494699
  0.5000000000000000  0.4728844995112485  0.1611304021159201
  0.5000000000000000  0.3499862030801736  0.8390746907780626
  0.5000000000000000  0.3699951017534112  0.8444087251295184
  0.5000000000000000  0.3703830314296839  0.8556007955756501
  0.5000000000000000  0.3909987460804513  0.8387474561337387
  0.5000000000000000  0.4318483700172270  0.8389130025424749
  0.5000000000000000  0.4114181480790844  0.8444636713050317
  0.5000000000000000  0.4114311397507450  0.8555877471953676
  0.5000000000000000  0.4728844995112485  0.8389236247464593
  0.5000000000000000  0.4524071168212582  0.8444848498700964
  0.5000000000000000  0.4933840166666670  0.8444737165608044
  0.5000000000000000  0.4523956722738809  0.8555714546025379
  0.5000000000000000  0.4933840166666670  0.8555818116243228
  0.5000000000000000  0.3498384010927896  0.8611201147571165
  0.5000000000000000  0.3498863803221969  0.8722661701750748
  0.5000000000000000  0.3703505561565462  0.8778088753158158
  0.5000000000000000  0.3908600843582293  0.8611536400226737
  0.5000000000000000  0.4318442886253151  0.8611405372682480
  0.5000000000000000  0.3909129015582841  0.8722364667172435
  0.5000000000000000  0.4318807417741550  0.8722483473154734
  0.5000000000000000  0.4113850169967097  0.8778089776083743
  0.5000000000000000  0.4728911678864267  0.8611476043241605
  0.5000000000000000  0.4729000586380070  0.8722426092590931
  0.5000000000000000  0.4523748899674379  0.8778102554930012
  0.5000000000000000  0.4933840166666670  0.8778088253886206
  0.5000000000000000  0.3703753044005690  0.8889124949426052
  0.5000000000000000  0.3498679008570761  0.8944590206042790
  0.5000000000000000  0.3498791122328869  0.9055947075907282
  0.5000000000000000  0.3703639435455791  0.9111329505777419
  0.5000000000000000  0.4113926681583675  0.8889122103921943
  0.5000000000000000  0.3908944722364464  0.8944748867270395
  0.5000000000000000  0.4318667214416392  0.8944681538322767
  0.5000000000000000  0.3908995451319036  0.9055809151819640
  0.5000000000000000  0.4318757938172750  0.9055855288614391
  0.5000000000000000  0.4113865110123590  0.9111312952256257
  0.5000000000000000  0.4523849186116010  0.8889089146979030
  0.5000000000000000  0.4933840166666670  0.8889112669332523
  0.5000000000000000  0.4728943345955715  0.8944705125903202
  0.5000000000000000  0.4728907932335794  0.9055841387778745
  0.5000000000000000  0.4523818680369321  0.9111336657794240
  0.5000000000000000  0.4933840166666670  0.9111343894889258
  0.5000000000000000  0.3703704500177691  0.9222570423656377
  0.5000000000000000  0.3498740791024992  0.9277955730509071
  0.5000000000000000  0.3498784667720338  0.9389261992995469
  0.5000000000000000  0.4113890190948283  0.9222582341921254
  0.5000000000000000  0.3908952010945810  0.9278054583712907
  0.5000000000000000  0.4318726863499170  0.9278024075220430
  0.5000000000000000  0.3909017713724064  0.9389144003458813
  0.5000000000000000  0.4318700791820292  0.9389195192382652
  0.5000000000000000  0.4523845761606761  0.9222559528638478
  0.5000000000000000  0.4933840166666670  0.9222551194654400
  0.5000000000000000  0.4728900460912331  0.9278024866210371
  0.5000000000000000  0.4728930000772568  0.9389179209758554
  0.5000000000000000  0.3703692701808779  0.9444763412180558
  0.5000000000000000  0.3703737791554370  0.9555783177963203
  0.5000000000000000  0.3498793479285521  0.9611404553799064
  0.5000000000000000  0.4113863316221765  0.9444753358941655
  0.5000000000000000  0.4113882027101594  0.9555787323456900
  0.5000000000000000  0.3908991087502576  0.9611457509824192
  0.5000000000000000  0.4318733030037659  0.9611449082585728
  0.5000000000000000  0.4523838790090972  0.9444777177563052
  0.5000000000000000  0.4933840166666670  0.9444783534480313
  0.5000000000000000  0.4523863261849319  0.9555780428581864
  0.5000000000000000  0.4933840166666670  0.9555767204971249
  0.5000000000000000  0.4728921833774248  0.9611435473865518
  0.5000000000000000  0.3498799840384912  0.9722494547941604
  0.5000000000000000  0.3703691990385732  0.9778035476865964
  0.5000000000000000  0.3703749057065632  0.9889164937281333
  0.5000000000000000  0.3498819357900801  0.9944603952376245
  0.5000000000000000  0.3908979907742319  0.9722424009236275
  0.5000000000000000  0.4318776592021797  0.9722443094736599
  0.5000000000000000  0.4113876296514095  0.9777994176870302
  0.5000000000000000  0.4113889585497998  0.9889209004488887
  0.5000000000000000  0.3908963691687852  0.9944674673561607
  0.5000000000000000  0.4318771189598735  0.9944653908788639
  0.5000000000000000  0.4728905833873837  0.9722448401002952
  0.5000000000000000  0.4523833017998160  0.9778032121726374
  0.5000000000000000  0.4933840166666670  0.9778021023548227
  0.5000000000000000  0.4523829501763778  0.9889150918696826
  0.5000000000000000  0.4933840166666670  0.9889174454210331
  0.5000000000000000  0.4728882587575726  0.9944649547918298
  0.5000000000000000  0.5138797245757571  0.0055884931554293
  0.5000000000000000  0.5548908977067925  0.0055880570683953
  0.5000000000000000  0.5343850831569562  0.0111388958768077
  0.5000000000000000  0.5343847315335180  0.0222508929215203
  0.5000000000000000  0.5958716474978807  0.0055859805910985
  0.5000000000000000  0.5753790414501980  0.0111330872976015
  0.5000000000000000  0.5753803703485882  0.0222546874071277
  0.5000000000000000  0.6368860475432568  0.0055930527096346
  0.5000000000000000  0.6163930942934346  0.0111374940183570
  0.5000000000000000  0.6573664882611593  0.0111410623558824
  0.5000000000000000  0.6163988009614246  0.0222505574075615
  0.5000000000000000  0.6573679217444939  0.0222473277223093
  0.5000000000000000  0.5138773999459462  0.0278087095482673
  0.5000000000000000  0.5548903574644862  0.0278092401749026
  0.5000000000000000  0.5138757999559050  0.0389101743719103
  0.5000000000000000  0.5548947136628999  0.0389088134998894
  0.5000000000000000  0.5343817071484021  0.0444752720950623
  0.5000000000000000  0.5958700258924341  0.0278111487249351
  0.5000000000000000  0.5958689079164083  0.0389079707760430
  0.5000000000000000  0.5753797972898385  0.0444745826075587
  0.5000000000000000  0.6368879992948457  0.0278040948544022
  0.5000000000000000  0.6368886354047848  0.0389132663785557
  0.5000000000000000  0.6163942208445609  0.0444749971569284
  0.5000000000000000  0.6573683482741115  0.0444830066404145
  0.5000000000000000  0.5343841543242368  0.0555757145446040
  0.5000000000000000  0.5138749832560731  0.0611361215328812
  0.5000000000000000  0.5548979374846366  0.0611345232704713
  0.5000000000000000  0.5138779372420966  0.0722516106499385
  0.5000000000000000  0.5548953303167489  0.0722516897489327
  0.5000000000000000  0.5343834571726578  0.0777976437237861
  0.5000000000000000  0.5753816683778215  0.0555780964067436
  0.5000000000000000  0.5958662452942596  0.0611396421628553
  0.5000000000000000  0.5958728155720849  0.0722486388996850
  0.5000000000000000  0.5753789809051695  0.0777953623955085
  0.5000000000000000  0.6163987298191200  0.0555770910828534
  0.5000000000000000  0.6573661940742633  0.0555709404537394
  0.5000000000000000  0.6368895165613032  0.0611278432091896
  0.5000000000000000  0.6368939042308378  0.0722585242200687
  0.5000000000000000  0.6163975499822287  0.0777965542219962
  0.5000000000000000  0.6573643595399193  0.0778015767482541
  0.5000000000000000  0.5343861652964018  0.0889200481558632
  0.5000000000000000  0.5138771900997504  0.0944691683521993
  0.5000000000000000  0.5548922228493910  0.0944677782686345
  0.5000000000000000  0.5138736487377583  0.1055824503199542
  0.5000000000000000  0.5549012952250266  0.1055848090779977
  0.5000000000000000  0.5753814889876389  0.0889224187096615
  0.5000000000000000  0.5958684715347623  0.0944723919481096
  0.5000000000000000  0.5958735444302196  0.1055780761832349
  0.5000000000000000  0.6164040564544188  0.0889207633575454
  0.5000000000000000  0.6573676207469098  0.0889159677718489
  0.5000000000000000  0.6368888711004501  0.0944585995393455
  0.5000000000000000  0.6369000824762608  0.1055939423059954
  0.5000000000000000  0.5343831147217329  0.1111451199876515
  0.5000000000000000  0.5343931433658961  0.1222437322534961
  0.5000000000000000  0.5138679246953227  0.1278113784873971
  0.5000000000000000  0.5548872748925109  0.1278056404310168
  0.5000000000000000  0.5753753318416304  0.1111418242933602
  0.5000000000000000  0.5753829830032883  0.1222450101381231
  0.5000000000000000  0.5958551151083818  0.1278175210292468
  0.5000000000000000  0.6163926955994289  0.1111415397429492
  0.5000000000000000  0.6573568657960663  0.1111410252085455
  0.5000000000000000  0.6164174438434517  0.1222451124306817
  0.5000000000000000  0.6573716846274351  0.1222445267923261
  0.5000000000000000  0.6368816030111399  0.1277878175714155
  0.5000000000000000  0.5138768154469031  0.1389063990686939
  0.5000000000000000  0.5549237280413508  0.1389134661246065
  0.5000000000000000  0.5343723610594531  0.1444815630699757
  0.5000000000000000  0.5343609165120758  0.1555681130401779
  0.5000000000000000  0.5138834838220814  0.1611304021159201
  0.5000000000000000  0.5549196466494389  0.1611410243199045
  0.5000000000000000  0.5959079323084366  0.1389003633701808
  0.5000000000000000  0.5753368602492530  0.1444652704771460
  0.5000000000000000  0.5753498519209135  0.1555892916052427
  0.5000000000000000  0.5957692705862146  0.1613065707286407
  0.5000000000000000  0.6369295822405473  0.1389338886357380
  0.5000000000000000  0.6163849685703140  0.1444522220968635
  0.5000000000000000  0.6573362265222717  0.1444182675022914
  0.5000000000000000  0.6167728982465867  0.1556442377807559
  0.5000000000000000  0.6574012939322867  0.1557316706450701
  0.5000000000000000  0.6367817802531632  0.1609793360843168
  0.5000000000000000  0.5138834838220814  0.8389236247464593
  0.5000000000000000  0.5549196466494389  0.8389130025424749
  0.5000000000000000  0.5343609165120758  0.8444848498700964
  0.5000000000000000  0.5343723610594531  0.8555714546025379
  0.5000000000000000  0.5957692705862146  0.8387474561337387
  0.5000000000000000  0.5753498519209135  0.8444636713050317
  0.5000000000000000  0.5753368602492530  0.8555877471953676
  0.5000000000000000  0.6367817802531632  0.8390746907780626
  0.5000000000000000  0.6167728982465867  0.8444087251295184
  0.5000000000000000  0.6574012939322867  0.8443212922652042
  0.5000000000000000  0.6163849685703140  0.8556007955756501
  0.5000000000000000  0.6573362265222717  0.8556347501702222
  0.5000000000000000  0.5138768154469031  0.8611476043241605
  0.5000000000000000  0.5549237280413508  0.8611405372682480
  0.5000000000000000  0.5138679246953227  0.8722426092590931
  0.5000000000000000  0.5548872748925109  0.8722483473154734
  0.5000000000000000  0.5343931433658961  0.8778102554930012
  0.5000000000000000  0.5959079323084366  0.8611536400226737
  0.5000000000000000  0.5958551151083818  0.8722364667172435
  0.5000000000000000  0.5753829830032883  0.8778089776083743
  0.5000000000000000  0.6369295822405473  0.8611201147571165
  0.5000000000000000  0.6368816030111399  0.8722661701750748
  0.5000000000000000  0.6164174438434517  0.8778088753158158
  0.5000000000000000  0.6573716846274351  0.8778094609541712
  0.5000000000000000  0.5343831147217329  0.8889089146979030
  0.5000000000000000  0.5138736487377583  0.8944705125903202
  0.5000000000000000  0.5549012952250266  0.8944681538322767
  0.5000000000000000  0.5138771900997504  0.9055841387778745
  0.5000000000000000  0.5548922228493910  0.9055855288614391
  0.5000000000000000  0.5343861652964018  0.9111336657794240
  0.5000000000000000  0.5753753318416304  0.8889122103921943
  0.5000000000000000  0.5958735444302196  0.8944748867270395
  0.5000000000000000  0.5958684715347623  0.9055809151819640
  0.5000000000000000  0.5753814889876389  0.9111312952256257
  0.5000000000000000  0.6163926955994289  0.8889124949426052
  0.5000000000000000  0.6573568657960663  0.8889130094770089
  0.5000000000000000  0.6369000824762608  0.8944590206042790
  0.5000000000000000  0.6368888711004501  0.9055947075907282
  0.5000000000000000  0.6164040564544188  0.9111329505777419
  0.5000000000000000  0.6573676207469098  0.9111377461634382
  0.5000000000000000  0.5343834571726578  0.9222559528638478
  0.5000000000000000  0.5138779372420966  0.9278024866210371
  0.5000000000000000  0.5548953303167489  0.9278024075220430
  0.5000000000000000  0.5138749832560731  0.9389179209758554
  0.5000000000000000  0.5548979374846366  0.9389195192382652
  0.5000000000000000  0.5753789809051695  0.9222582341921254
  0.5000000000000000  0.5958728155720849  0.9278054583712907
  0.5000000000000000  0.5958662452942596  0.9389144003458813
  0.5000000000000000  0.6163975499822287  0.9222570423656377
  0.5000000000000000  0.6573643595399193  0.9222520198393798
  0.5000000000000000  0.6368939042308378  0.9277955730509071
  0.5000000000000000  0.6368895165613032  0.9389261992995469
  0.5000000000000000  0.5343841543242368  0.9444777177563052
  0.5000000000000000  0.5343817071484021  0.9555780428581864
  0.5000000000000000  0.5138757999559050  0.9611435473865518
  0.5000000000000000  0.5548947136628999  0.9611449082585728
  0.5000000000000000  0.5753816683778215  0.9444753358941655
  0.5000000000000000  0.5753797972898385  0.9555787323456900
  0.5000000000000000  0.5958689079164083  0.9611457509824192
  0.5000000000000000  0.6163987298191200  0.9444763412180558
  0.5000000000000000  0.6573661940742633  0.9444824918471698
  0.5000000000000000  0.6163942208445609  0.9555783177963203
  0.5000000000000000  0.6573683482741115  0.9555703083128341
  0.5000000000000000  0.6368886354047848  0.9611404553799064
  0.5000000000000000  0.5138773999459462  0.9722448401002952
  0.5000000000000000  0.5548903574644862  0.9722443094736599
  0.5000000000000000  0.5343847315335180  0.9778032121726374
  0.5000000000000000  0.5343850831569562  0.9889150918696826
  0.5000000000000000  0.5138797245757571  0.9944649547918298
  0.5000000000000000  0.5548908977067925  0.9944653908788639
  0.5000000000000000  0.5958700258924341  0.9722424009236275
  0.5000000000000000  0.5753803703485882  0.9777994176870302
  0.5000000000000000  0.5753790414501980  0.9889209004488887
  0.5000000000000000  0.5958716474978807  0.9944674673561607
  0.5000000000000000  0.6368879992948457  0.9722494547941604
  0.5000000000000000  0.6163988009614246  0.9778035476865964
  0.5000000000000000  0.6573679217444939  0.9778067773718485
  0.5000000000000000  0.6163930942934346  0.9889164937281333
  0.5000000000000000  0.6573664882611593  0.9889129253906079
  0.5000000000000000  0.6368860475432568  0.9944603952376245
  0.5000000000000000  0.6778929575374248  0.0055891523521357
  0.5000000000000000  0.7188556664302799  0.0055688869482549
  0.5000000000000000  0.6983804836082689  0.0111241080223714
  0.5000000000000000  0.6983884516041595  0.0222638315973109
  0.5000000000000000  0.7599724935589184  0.0056539794361191
  0.5000000000000000  0.7394458646599483  0.0111378245769274
  0.5000000000000000  0.7394459086210441  0.0222524027040684
  0.5000000000000000  0.7802917188497149  0.0113538074955318
  0.5000000000000000  0.7802965083533927  0.0220339796854733
  0.5000000000000000  0.6778934366838238  0.0278076157632040
  0.5000000000000000  0.7188531935572700  0.0278274247995637
  0.5000000000000000  0.6778929069897108  0.0389120681023591
  0.5000000000000000  0.7188527937202288  0.0388892644405910
  0.5000000000000000  0.6983840777319342  0.0444613796597093
  0.5000000000000000  0.7599745124678270  0.0277418366120670
  0.5000000000000000  0.7599727174186990  0.0389776516590049
  0.5000000000000000  0.7394433860432833  0.0444795045402742
  0.5000000000000000  0.7802940077014191  0.0446908289814946
  0.5000000000000000  0.6983862692524030  0.0555912043317715
  0.5000000000000000  0.6778903039989841  0.0611364868799907
  0.5000000000000000  0.7188520665426592  0.0611514844084785
  0.5000000000000000  0.6778985518363840  0.0722517417413675
  0.5000000000000000  0.7188527896740242  0.0722336631315739
  0.5000000000000000  0.6983865594807321  0.0777804190594120
  0.5000000000000000  0.7394457082294411  0.0555743655101382
  0.5000000000000000  0.7599700265787687  0.0610696516328681