 # Position data
      14 atoms
  2 atom types
  0.9302112  26.4497888 xlo xhi
 -0.0129299   4.2739299 ylo yhi
  0.0000000  10.0000000 zlo zhi
  
 Atoms
  
      1  1  15.1316547   1.4589728   5.0999999
      2  1  15.1316547   2.8272572   5.0999999
      3  1  12.7597885   1.4273357   5.0999999
      4  1  13.9718666   0.7052399   5.0999999
      5  1  12.7597885   2.8588984   5.0999999
      6  1  13.9718666   3.5809941   5.0999999
      7  1  10.3879223   1.4589728   5.0999999
      8  1  11.5477104   0.7052399   5.0999999
      9  1  10.3879223   2.8272572   5.0999999
     10  1  11.5477104   3.5809941   5.0999999
     11  2   9.4019222   1.0172418   5.0999999
     12  2   9.4019222   3.2689922   5.0999999
     13  2  16.1176548   1.0172418   5.0999999
     14  2  16.1176548   3.2689922   5.0999999
 %block AtomicCoordinatesAndAtomicSpecies
  10.3879223   1.4589728   5.0999999  1 C 
  10.3879223   2.8272572   5.0999999  1 C 
  11.5477104   0.7052399   5.0999999  1 C 
  11.5477104   3.5809941   5.0999999  1 C 
  12.7597885   1.4273357   5.0999999  1 C 
  12.7597885   2.8588984   5.0999999  1 C 
  13.9718666   0.7052399   5.0999999  1 C 
  13.9718666   3.5809941   5.0999999  1 C 
  15.1316547   1.4589728   5.0999999  1 C 
  15.1316547   2.8272572   5.0999999  1 C 
  12.7597885   1.4273357   5.0999999  1 H 
  13.9718666   0.7052399   5.0999999  1 H 
  15.1316547   1.4589728   5.0999999  1 H 
  15.1316547   2.8272572   5.0999999  1 H 
 %endblock AtomicCoordinatesAndAtomicSpecies
