 %block AtomicCoordinatesAndAtomicSpecies                                                                                       
    5.025595   14.870149   0.7256170  2 Celec                       
    5.025595   17.357513   0.7185100  2 Celec                       
    5.025595   19.838054   0.7176840  2 Celec                       
    5.025595   22.321303   0.7208320  2 Celec                       
    5.025595   24.811453   0.7208500  2 Celec                       
    5.025595   27.294711   0.7177660  2 Celec                       
    5.025595   29.775238   0.7186380  2 Celec                       
    5.025595   32.262601   0.7258000  2 Celec                       
    5.025595   12.691087   0.9409100  1 H                           
    5.025595   34.441665   0.9411390  1 H                           
    5.025595   13.658252   1.4611560  2 Celec                       
    5.025595   16.109550   1.4397050  2 Celec                       
    5.025595   18.595769   1.4347070  2 Celec                       
    5.025595   21.082494   1.4389510  2 Celec                       
    5.025595   23.566399   1.4398340  2 Celec                       
    5.025595   26.050287   1.4390000  2 Celec                       
    5.025595   28.537009   1.4348170  2 Celec                       
    5.025595   31.023217   1.4398650  2 Celec                       
    5.025595   33.474516   1.4613611  2 Celec                       
    5.025595   13.654452   2.8483510  2 Celec                       
    5.025595   16.104715   2.8775280  2 Celec                       
    5.025595   18.592563   2.8778529  2 Celec                       
    5.025595   21.082034   2.8780429  2 Celec                       
    5.025595   23.566397   2.8755679  2 Celec                       
    5.025595   26.050764   2.8780830  2 Celec                       
    5.025595   28.540220   2.8779640  2 Celec                       
    5.025595   31.028065   2.8776829  2 Celec                       
    5.025595   33.478331   2.8485551  2 Celec                       
    5.025595   12.685633   3.3665681  1 H                           
    5.025595   34.447164   3.3667901  1 H                           
    5.025595   14.860961   3.5895190  2 Celec                       
    5.025595   17.355909   3.5915599  2 Celec                       
    5.025595   19.836543   3.5987310  2 Celec                       
    5.025595   22.321433   3.5943501  2 Celec                       
    5.025595   24.811391   3.5943649  2 Celec                       
    5.025595   27.296262   3.5988071  2 Celec                       
    5.025595   29.776887   3.5916929  2 Celec                       
    5.025595   32.271834   3.5896931  2 Celec                       
    5.025595   14.850368   5.0470161  3 Cscat                       
    5.025595   17.351396   5.0297680  3 Cscat                       
    5.025595   19.833728   5.0314159  3 Cscat                       
    5.025595   22.320001   5.0349841  3 Cscat                       
    5.025595   24.812840   5.0350060  3 Cscat                       
    5.025595   27.299113   5.0315089  3 Cscat                       
    5.025595   29.781430   5.0299001  3 Cscat                       
    5.025595   32.282456   5.0471869  3 Cscat                       
    5.025595   12.676965   5.2949829  1 H                           
    5.025595   34.455865   5.2952032  1 H                           
    5.025595   13.652600   5.7999701  3 Cscat                       
    5.025595   16.103432   5.7419748  3 Cscat                       
    5.025595   18.590361   5.7471638  3 Cscat                       
    5.025595   21.083959   5.7510452  3 Cscat                       
    5.025595   23.566429   5.7561340  3 Cscat                       
    5.025595   26.048900   5.7510948  3 Cscat                       
    5.025595   28.542495   5.7472730  3 Cscat                       
    5.025595   31.029422   5.7421188  3 Cscat                       
    5.025595   33.480240   5.8001609  3 Cscat                       
    5.025595   13.666922   7.2065501  3 Cscat                       
    5.025595   16.108889   7.1789241  3 Cscat                       
    5.025595   18.578308   7.1933060  3 Cscat                       
    5.025595   21.088200   7.1884112  3 Cscat                       
    5.025595   23.566435   7.1865468  3 Cscat                       
    5.025595   26.044682   7.1884642  3 Cscat                       
    5.025595   28.554566   7.1934152  3 Cscat                       
    5.025595   31.023982   7.1790729  3 Cscat                       
    5.025595   33.465952   7.2067418  3 Cscat                       
    5.025595   12.716578   7.7616668  1 H                           
    5.025595   34.416309   7.7618818  1 H                           
    5.025595   14.880598   7.8947339  3 Cscat                       
    5.025595   17.353621   7.8631282  3 Cscat                       
    5.025595   19.852408   7.9200492  3 Cscat                       
    5.025595   22.324883   7.9108162  3 Cscat                       
    5.025595   24.808000   7.9108329  3 Cscat                       
    5.025595   27.280487   7.9201221  3 Cscat                       
    5.025595   29.779276   7.8632579  3 Cscat                       
    5.025595   32.252295   7.8949041  3 Cscat                       
    5.025595   14.901678   8.9951839  1 H                           
    5.025595   17.312266   8.9621286  1 H                           
    5.025595   29.820643   8.9622593  1 H                           
    5.025595   32.231241   8.9953594  1 H                           
    5.025595   19.889040   9.3194761  3 Cscat                       
    5.025595   22.329064   9.3491697  3 Cscat                       
    5.025595   24.803832   9.3491898  3 Cscat                       
    5.025595   27.243883   9.3195515  3 Cscat                       
    5.025595   18.939744   9.8671284  1 H                           
    5.025595   28.193192   9.8672218  1 H                           
    5.025595   21.089324  10.0643759  3 Cscat                       
    5.025595   23.566453  10.0770998  3 Cscat                       
    5.025595   26.043603  10.0644112  3 Cscat                       
    5.025595   21.085565  11.5175829  3 Cscat                       
    5.025595   23.566481  11.5098476  3 Cscat                       
    5.025595   26.047396  11.5176249  3 Cscat                       
    5.025595   18.901125  11.7539206  1 H                           
    5.025595   28.231840  11.7540159  1 H                           
    5.025595   19.873001  12.2664547  3 Cscat                       
    5.025595   22.322968  12.2353907  3 Cscat                       
    5.025595   24.810011  12.2354155  3 Cscat                       
    5.025595   27.259979  12.2665262  3 Cscat                       
    5.025595   19.872828  13.6501284  3 Cscat                       
    5.025595   22.323147  13.6789398  3 Cscat                       
    5.025595   24.809866  13.6789684  3 Cscat                       
    5.025595   27.260181  13.6501999  3 Cscat                       
    5.025595   18.904410  14.1682701  1 H                           
    5.025595   28.228611  14.1683645  1 H                           
    5.025595   21.086101  14.3973398  3 Cscat                       
    5.025595   23.566518  14.4053802  3 Cscat                       
    5.025595   26.046924  14.3973894  3 Cscat                       
    5.025595   21.085615  15.8457832  3 Cscat                       
    5.025595   23.566524  15.8364372  3 Cscat                       
    5.025595   26.047430  15.8458357  3 Cscat                       
    5.025595   18.901651  16.0759335  1 H                           
    5.025595   28.231407  16.0760231  1 H                           
    5.025595   19.870936  16.5929909  3 Cscat                       
    5.025595   22.323169  16.5628815  3 Cscat                       
    5.025595   24.809896  16.5629063  3 Cscat                       
    5.025595   27.262139  16.5930691  3 Cscat                       
    5.025595   19.870153  17.9758167  3 Cscat                       
    5.025595   22.322912  18.0052090  3 Cscat                       
    5.025595   24.810176  18.0052338  3 Cscat                       
    5.025595   27.262936  17.9758968  3 Cscat                       
    5.025595   18.901714  18.4950905  1 H                           
    5.025595   28.231394  18.4951859  1 H                           
    5.025595   21.085149  18.7221432  3 Cscat                       
    5.025595   23.566553  18.7307968  3 Cscat                       
    5.025595   26.047958  18.7221889  3 Cscat                       
    5.025595   21.084978  20.1698875  3 Cscat                       
    5.025595   23.566568  20.1608849  3 Cscat                       
    5.025595   26.048156  20.1699352  3 Cscat                       
    5.025595   18.901262  20.3978004  1 H                           
    5.025595   28.231882  20.3978767  1 H                           
    5.025595   19.869840  20.9163933  3 Cscat                       
    5.025595   22.322860  20.8862228  3 Cscat                       
    5.025595   24.810296  20.8862495  3 Cscat                       
    5.025595   27.263317  20.9164677  3 Cscat                       
    5.025595   19.869751  22.2987194  3 Cscat                       
    5.025595   22.322949  22.3280678  3 Cscat                       
    5.025595   24.810234  22.3280945  3 Cscat                       
    5.025595   27.263434  22.2987804  3 Cscat                       
    5.025595   18.901061  22.8171597  1 H                           
    5.025595   28.232144  22.8172417  1 H                           
    5.025595   21.085221  23.0442715  3 Cscat                       
    5.025595   23.566598  23.0531693  3 Cscat                       
    5.025595   26.047979  23.0443325  3 Cscat                       
    5.025595   21.085386  24.4911842  3 Cscat                       
    5.025595   23.566615  24.4826641  3 Cscat                       
    5.025595   26.047841  24.4912376  3 Cscat                       
    5.025595   18.901605  24.7174969  1 H                           
    5.025595   28.231613  24.7175827  1 H                           
    5.025595   19.869954  25.2364960  3 Cscat                       
    5.025595   22.322965  25.2075634  3 Cscat                       
    5.025595   24.810286  25.2075977  3 Cscat                       
    5.025595   27.263295  25.2365818  3 Cscat                       
    5.025595   19.869836  26.6187363  3 Cscat                       
    5.025595   22.322917  26.6488438  3 Cscat                       
    5.025595   24.810349  26.6488724  3 Cscat                       
    5.025595   27.263438  26.6188202  3 Cscat                       
    5.025595   18.901236  27.1371708  1 H                           
    5.025595   28.232048  27.1372738  1 H                           
    5.025595   21.085083  27.3648548  3 Cscat                       
    5.025595   23.566637  27.3736954  3 Cscat                       
    5.025595   26.048204  27.3649006  3 Cscat                       
    5.025595   21.085278  28.8118744  3 Cscat                       
    5.025595   23.566652  28.8031044  3 Cscat                       
    5.025595   26.048031  28.8119221  3 Cscat                       
    5.025595   18.901479  29.0392342  1 H                           
    5.025595   28.231830  29.0393257  1 H                           
    5.025595   19.870101  29.5577011  3 Cscat                       
    5.025595   22.322992  29.5282001  3 Cscat                       
    5.025595   24.810332  29.5282211  3 Cscat                       
    5.025595   27.263224  29.5577736  3 Cscat                       
    5.025595   19.870110  30.9399738  3 Cscat                       
    5.025595   22.323004  30.9695282  3 Cscat                       
    5.025595   24.810343  30.9695473  3 Cscat                       
    5.025595   27.263235  30.9400444  3 Cscat                       
    5.025595   18.901502  31.4584236  1 H                           
    5.025595   28.231854  31.4585114  1 H                           
    5.025595   21.085305  31.6858253  3 Cscat                       
    5.025595   23.566682  31.6946449  3 Cscat                       
    5.025595   26.048057  31.6858711  3 Cscat                       
    5.025595   21.085138  33.1328545  3 Cscat                       
    5.025595   23.566697  33.1240540  3 Cscat                       
    5.025595   26.048256  33.1328964  3 Cscat                       
    5.025595   18.901293  33.3604927  1 H                           
    5.025595   28.232105  33.3605728  1 H                           
    5.025595   19.869907  33.8789406  3 Cscat                       
    5.025595   22.322994  33.8488846  3 Cscat                       
    5.025595   24.810422  33.8489037  3 Cscat                       
    5.025595   27.263507  33.8790016  3 Cscat                       
    5.025595   19.870061  35.2611847  3 Cscat                       
    5.025595   22.323059  35.2901611  3 Cscat                       
    5.025595   24.810379  35.2901802  3 Cscat                       
    5.025595   27.263388  35.2612419  3 Cscat                       
    5.025595   18.901720  35.7801628  1 H                           
    5.025595   28.231719  35.7802582  1 H                           
    5.025595   21.085499  36.0065193  3 Cscat                       
    5.025595   23.566731  36.0150833  3 Cscat                       
    5.025595   26.047957  36.0065575  3 Cscat                       
    5.025595   21.085363  37.4534302  3 Cscat                       
    5.025595   23.566739  37.4445801  3 Cscat                       
    5.025595   26.048121  37.4534645  3 Cscat                       
    5.025595   18.901205  37.6805077  1 H                           
    5.025595   28.232285  37.6806030  1 H                           
    5.025595   19.869906  38.1989784  3 Cscat                       
    5.025595   22.323108  38.1696587  3 Cscat                       
    5.025595   24.810396  38.1696777  3 Cscat                       
    5.025595   27.263591  38.1990433  3 Cscat                       
    5.025595   19.870025  39.5812912  3 Cscat                       
    5.025595   22.323045  39.6114998  3 Cscat                       
    5.025595   24.810480  39.6115189  3 Cscat                       
    5.025595   27.263497  39.5813599  3 Cscat                       
    5.025595   18.901456  40.0998726  1 H                           
    5.025595   28.232080  40.0999641  1 H                           
    5.025595   21.085187  40.3278198  3 Cscat                       
    5.025595   23.566767  40.3368645  3 Cscat                       
    5.025595   26.048356  40.3278618  3 Cscat                       
    5.025595   21.085386  41.7755585  3 Cscat                       
    5.025595   23.566786  41.7669487  3 Cscat                       
    5.025595   26.048184  41.7756042  3 Cscat                       
    5.025595   18.901946  42.0025673  1 H                           
    5.025595   28.231625  42.0026512  1 H                           
    5.025595   19.870406  42.5218544  3 Cscat                       
    5.025595   22.323163  42.4925117  3 Cscat                       
    5.025595   24.810425  42.4925423  3 Cscat                       
    5.025595   27.263186  42.5219231  3 Cscat                       
    5.025595   19.871212  43.9046822  3 Cscat                       
    5.025595   22.323444  43.9348450  3 Cscat                       
    5.025595   24.810171  43.9348640  3 Cscat                       
    5.025595   27.262412  43.9047508  3 Cscat                       
    5.025595   18.901939  44.4217262  1 H                           
    5.025595   28.231694  44.4218102  1 H                           
    5.025595   21.085910  44.6519165  3 Cscat                       
    5.025595   23.566820  44.6613121  3 Cscat                       
    5.025595   26.047727  44.6519623  3 Cscat                       
    5.025595   21.086425  46.1003647  3 Cscat                       
    5.025595   23.566833  46.0923691  3 Cscat                       
    5.025595   26.047242  46.1004105  3 Cscat                       
    5.025595   18.904738  46.3293991  1 H                           
    5.025595   28.228940  46.3294792  1 H                           
    5.025595   19.873170  46.8475494  3 Cscat                       
    5.025595   22.323488  46.8187828  3 Cscat                       
    5.025595   24.810204  46.8188095  3 Cscat                       
    5.025595   27.260518  46.8476257  3 Cscat                       
    5.025595   19.873358  48.2312317  3 Cscat                       
    5.025595   22.323337  48.2623405  3 Cscat                       
    5.025595   24.810378  48.2623596  3 Cscat                       
    5.025595   27.260338  48.2313004  3 Cscat                       
    5.025595   18.901483  48.7437248  1 H                           
    5.025595   28.232211  48.7438316  1 H                           
    5.025595   21.085946  48.9801254  3 Cscat                       
    5.025595   23.566868  48.9879036  3 Cscat                       
    5.025595   26.047779  48.9801712  3 Cscat                       
    5.025595   21.089732  50.4333305  3 Cscat                       
    5.025595   23.566877  50.4206543  3 Cscat                       
    5.025595   26.044014  50.4333763  3 Cscat                       
    5.025595   18.940157  50.6305237  1 H                           
    5.025595   28.193594  50.6306229  1 H                           
    5.025595   19.889462  51.1782036  3 Cscat                       
    5.025595   22.329500  51.1485634  3 Cscat                       
    5.025595   24.804275  51.1485825  3 Cscat                       
    5.025595   27.244296  51.1782722  3 Cscat                       
    5.025595   14.902109  51.5023994  1 H                           
    5.025595   17.312693  51.5354919  1 H                           
    5.025595   29.821075  51.5356255  1 H                           
    5.025595   32.231668  51.5025711  1 H                           
    5.025595   14.881052  52.6028481  3 Cscat                       
    5.025595   17.354068  52.6344948  3 Cscat                       
    5.025595   19.852852  52.5776253  3 Cscat                       
    5.025595   22.325334  52.5869179  3 Cscat                       
    5.025595   24.808459  52.5869331  3 Cscat                       
    5.025595   27.280930  52.5776939  3 Cscat                       
    5.025595   29.779718  52.6346207  3 Cscat                       
    5.025595   32.252745  52.6030235  3 Cscat                       
    5.025595   12.717033  52.7358665  1 H                           
    5.025595   34.416763  52.7360878  1 H                           
    5.025595   13.667393  53.2910042  3 Cscat                       
    5.025595   16.109360  53.3186836  3 Cscat                       
    5.025595   18.578773  53.3043365  3 Cscat                       
    5.025595   21.088662  53.3092918  3 Cscat                       
    5.025595   23.566905  53.3112030  3 Cscat                       
    5.025595   26.045144  53.3093376  3 Cscat                       
    5.025595   28.555026  53.3044395  3 Cscat                       
    5.025595   31.024452  53.3188248  3 Cscat                       
    5.025595   33.466423  53.2912064  3 Cscat                       
    5.025595   13.653092  54.6975822  3 Cscat                       
    5.025595   16.103922  54.7556305  3 Cscat                       
    5.025595   18.590848  54.7504768  3 Cscat                       
    5.025595   21.084443  54.7466583  3 Cscat                       
    5.025595   23.566915  54.7416191  3 Cscat                       
    5.025595   26.049380  54.7467041  3 Cscat                       
    5.025595   28.542982  54.7505836  3 Cscat                       
    5.025595   31.029915  54.7557793  3 Cscat                       
    5.025595   33.480734  54.6977882  3 Cscat                       
    5.025595   12.677470  55.2025528  1 H                           
    5.025595   34.456369  55.2027702  1 H                           
    5.025595   14.850877  55.4505653  3 Cscat                       
    5.025595   17.351908  55.4678497  3 Cscat                       
    5.025595   19.834235  55.4662552  3 Cscat                       
    5.025595   22.320505  55.4627495  3 Cscat                       
    5.025595   24.813339  55.4627762  3 Cscat                       
    5.025595   27.299611  55.4663200  3 Cscat                       
    5.025595   29.781940  55.4679794  3 Cscat                       
    5.025595   32.282967  55.4507332  3 Cscat                       
    5.025595   14.861500  56.9080582  2 Celec                       
    5.025595   17.356448  56.9060555  2 Celec                       
    5.025595   19.837074  56.8989487  2 Celec                       
    5.025595   22.321965  56.9033852  2 Celec                       
    5.025595   24.811923  56.9034233  2 Celec                       
    5.025595   27.296802  56.8990173  2 Celec                       
    5.025595   29.777430  56.9061813  2 Celec                       
    5.025595   32.272375  56.9082336  2 Celec                       
    5.025595   12.686167  57.1309586  1 H                           
    5.025595   34.447706  57.1311874  1 H                           
    5.025595   13.655002  57.6491928  2 Celec                       
    5.025595   16.105270  57.6200638  2 Celec                       
    5.025595   18.593121  57.6197968  2 Celec                       
    5.025595   21.082584  57.6196594  2 Celec                       
    5.025595   23.566946  57.6221924  2 Celec                       
    5.025595   26.051317  57.6197128  2 Celec                       
    5.025595   28.540775  57.6198883  2 Celec                       
    5.025595   31.028629  57.6202202  2 Celec                       
    5.025595   33.478888  57.6494026  2 Celec                       
    5.025595   13.658821  59.0363884  2 Celec                       
    5.025595   16.110126  59.0578804  2 Celec                       
    5.025595   18.596345  59.0629425  2 Celec                       
    5.025595   21.083071  59.0587502  2 Celec                       
    5.025595   23.566971  59.0579338  2 Celec                       
    5.025595   26.050877  59.0587997  2 Celec                       
    5.025595   28.537588  59.0630341  2 Celec                       
    5.025595   31.023793  59.0580406  2 Celec                       
    5.025595   33.475092  59.0365944  2 Celec                       
    5.025595   12.691675  59.5566177  1 H                           
    5.025595   34.442256  59.5568352  1 H                           
    5.025595   14.870739  59.7719460  2 Celec                       
    5.025595   17.358108  59.7791100  2 Celec                       
    5.025595   19.838656  59.7799873  2 Celec                       
    5.025595   22.321903  59.7768974  2 Celec                       
    5.025595   24.812060  59.7769203  2 Celec                       
    5.025595   27.295309  59.7800674  2 Celec                       
    5.025595   29.775832  59.7792358  2 Celec                       
    5.025595   32.263194  59.7721329  2 Celec                       
    5.025595   14.870149  61.2228889  2 Celec                       
    5.025595   17.357513  61.2157822  2 Celec                       
    5.025595   19.838054  61.2149582  2 Celec                       
    5.025595   22.321303  61.2181053  2 Celec                       
    5.025595   24.811453  61.2181244  2 Celec                       
    5.025595   27.294711  61.2150383  2 Celec                       
    5.025595   29.775238  61.2159119  2 Celec                       
    5.025595   32.262601  61.2230721  2 Celec                       
    5.025595   12.691087  61.4381828  1 H                           
    5.025595   34.441665  61.4384117  1 H                           
    5.025595   13.658252  61.9584274  2 Celec                       
    5.025595   16.109550  61.9369774  2 Celec                       
    5.025595   18.595769  61.9319801  2 Celec                       
    5.025595   21.082494  61.9362221  2 Celec                       
    5.025595   23.566399  61.9371071  2 Celec                       
    5.025595   26.050287  61.9362717  2 Celec                       
    5.025595   28.537009  61.9320908  2 Celec                       
    5.025595   31.023217  61.9371376  2 Celec                       
    5.025595   33.474516  61.9586334  2 Celec                       
    5.025595   13.654452  63.3456230  2 Celec                       
    5.025595   16.104715  63.3748016  2 Celec                       
    5.025595   18.592563  63.3751259  2 Celec                       
    5.025595   21.082034  63.3753166  2 Celec                       
    5.025595   23.566397  63.3728409  2 Celec                       
    5.025595   26.050764  63.3753548  2 Celec                       
    5.025595   28.540220  63.3752365  2 Celec                       
    5.025595   31.028065  63.3749542  2 Celec                       
    5.025595   33.478331  63.3458290  2 Celec                       
    5.025595   12.685633  63.8638420  1 H                           
    5.025595   34.447164  63.8640633  1 H                           
    5.025595   14.860961  64.0867920  2 Celec                       
    5.025595   17.355909  64.0888290  2 Celec                       
    5.025595   19.836543  64.0960007  2 Celec                       
    5.025595   22.321433  64.0916214  2 Celec                       
    5.025595   24.811391  64.0916367  2 Celec                       
    5.025595   27.296262  64.0960770  2 Celec                       
    5.025595   29.776887  64.0889664  2 Celec                       
    5.025595   32.271834  64.0869675  2 Celec                       
    5.025595   14.850368  65.5442886  3 Cscat                       
    5.025595   17.351396  65.5270386  3 Cscat                       
    5.025595   19.833728  65.5286865  3 Cscat                       
    5.025595   22.320001  65.5322571  3 Cscat                       
    5.025595   24.812840  65.5322800  3 Cscat                       
    5.025595   27.299113  65.5287781  3 Cscat                       
    5.025595   29.781430  65.5271759  3 Cscat                       
    5.025595   32.282456  65.5444565  3 Cscat                       
    5.025595   12.676965  65.7922516  1 H                           
    5.025595   34.455865  65.7924728  1 H                           
    5.025595   13.652600  66.2972412  3 Cscat                       
    5.025595   16.103432  66.2392502  3 Cscat                       
    5.025595   18.590361  66.2444382  3 Cscat                       
    5.025595   21.083959  66.2483215  3 Cscat                       
    5.025595   23.566429  66.2534027  3 Cscat                       
    5.025595   26.048900  66.2483673  3 Cscat                       
    5.025595   28.542495  66.2445450  3 Cscat                       
    5.025595   31.029422  66.2393951  3 Cscat                       
    5.025595   33.480240  66.2974319  3 Cscat                       
    5.025595   13.666922  67.7038193  3 Cscat                       
    5.025595   16.108889  67.6761932  3 Cscat                       
    5.025595   18.578308  67.6905823  3 Cscat                       
    5.025595   21.088200  67.6856842  3 Cscat                       
    5.025595   23.566435  67.6838226  3 Cscat                       
    5.025595   26.044682  67.6857376  3 Cscat                       
    5.025595   28.554566  67.6906891  3 Cscat                       
    5.025595   31.023982  67.6763458  3 Cscat                       
    5.025595   33.465952  67.7040176  3 Cscat                       
    5.025595   12.716578  68.2589417  1 H                           
    5.025595   34.416309  68.2591553  1 H                           
    5.025595   14.880598  68.3920059  3 Cscat                       
    5.025595   17.353621  68.3603973  3 Cscat                       
    5.025595   19.852408  68.4173203  3 Cscat                       
    5.025595   22.324883  68.4080887  3 Cscat                       
    5.025595   24.808000  68.4081039  3 Cscat                       
    5.025595   27.280487  68.4173965  3 Cscat                       
    5.025595   29.779276  68.3605270  3 Cscat                       
    5.025595   32.252295  68.3921738  3 Cscat                       
    5.025595   14.901678  69.4924545  1 H                           
    5.025595   17.312266  69.4594040  1 H                           
    5.025595   29.820643  69.4595337  1 H                           
    5.025595   32.231241  69.4926300  1 H                           
    5.025595   19.889040  69.8167496  3 Cscat                       
    5.025595   22.329064  69.8464432  3 Cscat                       
    5.025595   24.803832  69.8464661  3 Cscat                       
    5.025595   27.243883  69.8168259  3 Cscat                       
    5.025595   18.939744  70.3644028  1 H                           
    5.025595   28.193192  70.3644943  1 H                           
    5.025595   21.089324  70.5616455  3 Cscat                       
    5.025595   23.566453  70.5743713  3 Cscat                       
    5.025595   26.043603  70.5616837  3 Cscat                       
    5.025595   21.085565  72.0148544  3 Cscat                       
    5.025595   23.566481  72.0071182  3 Cscat                       
    5.025595   26.047396  72.0149002  3 Cscat                       