%block AtomicCoordinatesAndAtomicSpecies
    5.020000   11.323234    0.716428  1 Cwid
    5.020000   10.088344    1.429413  1 Cwid
    5.020000   10.088344    2.855374  1 Cwid
    5.020000   11.323234    3.568348  1 Cwid
    5.020000   11.323234    4.994309  1 Cwid
    5.020000   10.088344    5.707296  1 Cwid
    5.020000   10.088344    7.133257  1 Cwid
    5.020000   11.323234    7.846244  1 Cwid
    5.020000   11.323234    9.272204  1 Cwid
    5.020000   10.088344    9.985179  1 Cwid
    5.020000   10.088344   11.411139  1 Cwid
    5.020000   11.323234   12.124126  1 Cwid
    5.020000   11.323234   13.550035  1 Cwid
    5.020000   10.088344   14.263074  1 Cwid
    5.020000   10.088344   15.689022  1 Cwid
    5.020000   11.323234   16.402060  1 Cwid
    5.020000   11.323234   17.828009  1 Cwid
    5.020000   10.088344   18.540920  1 Cwid
    5.020000   10.088344   19.966866  1 Cwid
    5.020000   11.323234   20.679905  1 Cwid
    5.020000   11.323234  107.663643  1 Cwid
    5.020000   10.088344  108.376541  1 Cwid
    5.020000   10.088344  109.802498  1 Cwid
    5.020000   11.323234  110.515533  1 Cwid
    5.020000   11.323234  111.941483  1 Cwid
    5.020000   10.088344  112.654518  1 Cwid
    5.020000   10.088344  114.080475  1 Cwid
    5.020000   11.323234  114.793373  1 Cwid
    5.020000   11.323234  116.219330  1 Cwid
    5.020000   10.088344  116.932365  1 Cwid
    5.020000   10.088344  118.358315  1 Cwid
    5.020000   11.323234  119.071350  1 Cwid
    5.020000   11.323234  120.497307  1 Cwid
    5.020000   10.088344  121.210213  1 Cwid
    5.020000   10.088344  122.636162  1 Cwid
    5.020000   11.323234  123.349197  1 Cwid
    5.020000   11.323234  124.775139  1 Cwid
    5.020000   10.088344  125.488182  1 Cwid
    5.020000   10.088344  126.914131  1 Cwid
    5.020000   11.323234  127.627045  1 Cwid
    5.020000   13.793084    0.716428  1 Cwid
    5.020000   12.558124    1.429413  1 Cwid
    5.020000   15.027973    1.429413  1 Cwid
    5.020000   12.558124    2.855374  1 Cwid
    5.020000   15.027973    2.855374  1 Cwid
    5.020000   16.262934    0.716428  1 Cwid
    5.020000   18.732784    0.716428  1 Cwid
    5.020000   17.497824    1.429413  1 Cwid
    5.020000   17.497824    2.855374  1 Cwid
    5.020000   21.202564    0.716428  1 Cwid
    5.020000   19.967674    1.429413  1 Cwid
    5.020000   22.437523    1.429413  1 Cwid
    5.020000   19.967674    2.855374  1 Cwid
    5.020000   22.437523    2.855374  1 Cwid
    5.020000   13.793084    3.568348  1 Cwid
    5.020000   13.793084    4.994309  1 Cwid
    5.020000   12.558124    5.707296  1 Cwid
    5.020000   15.027973    5.707296  1 Cwid
    5.020000   16.262934    3.568348  1 Cwid
    5.020000   18.732784    3.568348  1 Cwid
    5.020000   16.262934    4.994309  1 Cwid
    5.020000   18.732784    4.994309  1 Cwid
    5.020000   17.497824    5.707296  1 Cwid
    5.020000   21.202564    3.568348  1 Cwid
    5.020000   21.202564    4.994309  1 Cwid
    5.020000   19.967674    5.707296  1 Cwid
    5.020000   22.437523    5.707296  1 Cwid
    5.020000   12.558124    7.133257  1 Cwid
    5.020000   15.027973    7.133257  1 Cwid
    5.020000   13.793084    7.846244  1 Cwid
    5.020000   13.793084    9.272204  1 Cwid
    5.020000   12.558124    9.985179  1 Cwid
    5.020000   15.027973    9.985179  1 Cwid
    5.020000   17.497824    7.133257  1 Cwid
    5.020000   16.262934    7.846244  1 Cwid
    5.020000   18.732784    7.846244  1 Cwid
    5.020000   16.262934    9.272204  1 Cwid
    5.020000   18.732784    9.272204  1 Cwid
    5.020000   17.497824    9.985179  1 Cwid
    5.020000   19.967674    7.133257  1 Cwid
    5.020000   22.437523    7.133257  1 Cwid
    5.020000   21.202564    7.846244  1 Cwid
    5.020000   21.202564    9.272204  1 Cwid
    5.020000   19.967674    9.985179  1 Cwid
    5.020000   22.437523    9.985179  1 Cwid
    5.020000   12.558124   11.411139  1 Cwid
    5.020000   15.027973   11.411139  1 Cwid
    5.020000   13.793084   12.124126  1 Cwid
    5.020000   13.793084   13.550035  1 Cwid
    5.020000   17.497824   11.411139  1 Cwid
    5.020000   16.262934   12.124126  1 Cwid
    5.020000   18.732784   12.124126  1 Cwid
    5.020000   16.262934   13.550035  1 Cwid
    5.020000   18.732784   13.550035  1 Cwid
    5.020000   19.967674   11.411139  1 Cwid
    5.020000   22.437523   11.411139  1 Cwid
    5.020000   21.202564   12.124126  1 Cwid
    5.020000   21.202564   13.550035  1 Cwid
    5.020000   12.558124   14.263074  1 Cwid
    5.020000   15.027973   14.263074  1 Cwid
    5.020000   12.558124   15.689022  1 Cwid
    5.020000   15.027973   15.689022  1 Cwid
    5.020000   13.793084   16.402060  1 Cwid
    5.020000   17.497824   14.263074  1 Cwid
    5.020000   17.497824   15.689022  1 Cwid
    5.020000   16.262934   16.402060  1 Cwid
    5.020000   18.732784   16.402060  1 Cwid
    5.020000   19.967674   14.263074  1 Cwid
    5.020000   22.437523   14.263074  1 Cwid
    5.020000   19.967674   15.689022  1 Cwid
    5.020000   22.437523   15.689022  1 Cwid
    5.020000   21.202564   16.402060  1 Cwid
    5.020000   13.793084   17.828009  1 Cwid
    5.020000   12.558124   18.540920  1 Cwid
    5.020000   15.027973   18.540920  1 Cwid
    5.020000   12.558124   19.966866  1 Cwid
    5.020000   15.027973   19.966866  1 Cwid
    5.020000   13.793084   20.679905  1 Cwid
    5.020000   16.262934   17.828009  1 Cwid
    5.020000   18.732784   17.828009  1 Cwid
    5.020000   17.497824   18.540920  1 Cwid
    5.020000   17.497824   19.966866  1 Cwid
    5.020000   16.262934   20.679905  1 Cwid
    5.020000   18.732784   20.679905  1 Cwid
    5.020000   21.202564   17.828009  1 Cwid
    5.020000   19.967674   18.540920  1 Cwid
    5.020000   22.437523   18.540920  1 Cwid
    5.020000   19.967674   19.966866  1 Cwid
    5.020000   22.437523   19.966866  1 Cwid
    5.020000   21.202564   20.679905  1 Cwid
    5.020000   13.793084  107.663643  1 Cwid
    5.020000   12.558124  108.376541  1 Cwid
    5.020000   15.027973  108.376541  1 Cwid
    5.020000   12.558124  109.802498  1 Cwid
    5.020000   15.027973  109.802498  1 Cwid
    5.020000   16.262934  107.663643  1 Cwid
    5.020000   18.732784  107.663643  1 Cwid
    5.020000   17.497824  108.376541  1 Cwid
    5.020000   17.497824  109.802498  1 Cwid
    5.020000   21.202564  107.663643  1 Cwid
    5.020000   19.967674  108.376541  1 Cwid
    5.020000   22.437523  108.376541  1 Cwid
    5.020000   19.967674  109.802498  1 Cwid
    5.020000   22.437523  109.802498  1 Cwid
    5.020000   13.793084  110.515533  1 Cwid
    5.020000   13.793084  111.941483  1 Cwid
    5.020000   12.558124  112.654518  1 Cwid
    5.020000   15.027973  112.654518  1 Cwid
    5.020000   16.262934  110.515533  1 Cwid
    5.020000   18.732784  110.515533  1 Cwid
    5.020000   16.262934  111.941483  1 Cwid
    5.020000   18.732784  111.941483  1 Cwid
    5.020000   17.497824  112.654518  1 Cwid
    5.020000   21.202564  110.515533  1 Cwid
    5.020000   21.202564  111.941483  1 Cwid
    5.020000   19.967674  112.654518  1 Cwid
    5.020000   22.437523  112.654518  1 Cwid
    5.020000   12.558124  114.080475  1 Cwid
    5.020000   15.027973  114.080475  1 Cwid
    5.020000   13.793084  114.793373  1 Cwid
    5.020000   13.793084  116.219330  1 Cwid
    5.020000   12.558124  116.932365  1 Cwid
    5.020000   15.027973  116.932365  1 Cwid
    5.020000   17.497824  114.080475  1 Cwid
    5.020000   16.262934  114.793373  1 Cwid
    5.020000   18.732784  114.793373  1 Cwid
    5.020000   16.262934  116.219330  1 Cwid
    5.020000   18.732784  116.219330  1 Cwid
    5.020000   17.497824  116.932365  1 Cwid
    5.020000   19.967674  114.080475  1 Cwid
    5.020000   22.437523  114.080475  1 Cwid
    5.020000   21.202564  114.793373  1 Cwid
    5.020000   21.202564  116.219330  1 Cwid
    5.020000   19.967674  116.932365  1 Cwid
    5.020000   22.437523  116.932365  1 Cwid
    5.020000   12.558124  118.358315  1 Cwid
    5.020000   15.027973  118.358315  1 Cwid
    5.020000   13.793084  119.071350  1 Cwid
    5.020000   13.793084  120.497307  1 Cwid
    5.020000   17.497824  118.358315  1 Cwid
    5.020000   16.262934  119.071350  1 Cwid
    5.020000   18.732784  119.071350  1 Cwid
    5.020000   16.262934  120.497307  1 Cwid
    5.020000   18.732784  120.497307  1 Cwid
    5.020000   19.967674  118.358315  1 Cwid
    5.020000   22.437523  118.358315  1 Cwid
    5.020000   21.202564  119.071350  1 Cwid
    5.020000   21.202564  120.497307  1 Cwid
    5.020000   12.558124  121.210213  1 Cwid
    5.020000   15.027973  121.210213  1 Cwid
    5.020000   12.558124  122.636162  1 Cwid
    5.020000   15.027973  122.636162  1 Cwid
    5.020000   13.793084  123.349197  1 Cwid
    5.020000   17.497824  121.210213  1 Cwid
    5.020000   17.497824  122.636162  1 Cwid
    5.020000   16.262934  123.349197  1 Cwid
    5.020000   18.732784  123.349197  1 Cwid
    5.020000   19.967674  121.210213  1 Cwid
    5.020000   22.437523  121.210213  1 Cwid
    5.020000   19.967674  122.636162  1 Cwid
    5.020000   22.437523  122.636162  1 Cwid
    5.020000   21.202564  123.349197  1 Cwid
    5.020000   13.793084  124.775139  1 Cwid
    5.020000   12.558124  125.488182  1 Cwid
    5.020000   15.027973  125.488182  1 Cwid
    5.020000   12.558124  126.914131  1 Cwid
    5.020000   15.027973  126.914131  1 Cwid
    5.020000   13.793084  127.627045  1 Cwid
    5.020000   16.262934  124.775139  1 Cwid
    5.020000   18.732784  124.775139  1 Cwid
    5.020000   17.497824  125.488182  1 Cwid
    5.020000   17.497824  126.914131  1 Cwid
    5.020000   16.262934  127.627045  1 Cwid
    5.020000   18.732784  127.627045  1 Cwid
    5.020000   21.202564  124.775139  1 Cwid
    5.020000   19.967674  125.488182  1 Cwid
    5.020000   22.437523  125.488182  1 Cwid
    5.020000   19.967674  126.914131  1 Cwid
    5.020000   22.437523  126.914131  1 Cwid
    5.020000   21.202564  127.627045  1 Cwid
    5.020000   23.672415    0.716428  1 Cwid
    5.020000   26.142265    0.716428  1 Cwid
    5.020000   24.907373    1.429413  1 Cwid
    5.020000   24.907373    2.855374  1 Cwid
    5.020000   28.612114    0.716428  1 Cwid
    5.020000   31.081966    0.716428  1 Cwid
    5.020000   27.377155    1.429413  1 Cwid
    5.020000   29.847004    1.429413  1 Cwid
    5.020000   27.377155    2.855374  1 Cwid
    5.020000   29.847004    2.855374  1 Cwid
    5.020000   33.551815    0.716428  1 Cwid
    5.020000   32.316853    1.429413  1 Cwid
    5.020000   34.786705    1.429413  1 Cwid
    5.020000   32.316853    2.855374  1 Cwid
    5.020000   34.786705    2.855374  1 Cwid
    5.020000   23.672415    3.568348  1 Cwid
    5.020000   26.142265    3.568348  1 Cwid
    5.020000   23.672415    4.994309  1 Cwid
    5.020000   26.142265    4.994309  1 Cwid
    5.020000   24.907373    5.707296  1 Cwid
    5.020000   28.612114    3.568348  1 Cwid
    5.020000   31.081966    3.568348  1 Cwid
    5.020000   28.612114    4.994309  1 Cwid
    5.020000   31.081966    4.994309  1 Cwid
    5.020000   27.377155    5.707296  1 Cwid
    5.020000   29.847004    5.707296  1 Cwid
    5.020000   33.551815    3.568348  1 Cwid
    5.020000   33.551815    4.994309  1 Cwid
    5.020000   32.316853    5.707296  1 Cwid
    5.020000   34.786705    5.707296  1 Cwid
    5.020000   24.907373    7.133257  1 Cwid
    5.020000   23.672415    7.846244  1 Cwid
    5.020000   26.142265    7.846244  1 Cwid
    5.020000   23.672415    9.272204  1 Cwid
    5.020000   26.142265    9.272204  1 Cwid
    5.020000   24.907373    9.985179  1 Cwid
    5.020000   27.377155    7.133257  1 Cwid
    5.020000   29.847004    7.133257  1 Cwid
    5.020000   28.612114    7.846244  1 Cwid
    5.020000   31.081966    7.846244  1 Cwid
    5.020000   28.612114    9.272204  1 Cwid
    5.020000   31.081966    9.272204  1 Cwid
    5.020000   27.377155    9.985179  1 Cwid
    5.020000   29.847004    9.985179  1 Cwid
    5.020000   32.316853    7.133257  1 Cwid
    5.020000   34.786705    7.133257  1 Cwid
    5.020000   33.551815    7.846244  1 Cwid
    5.020000   33.551815    9.272204  1 Cwid
    5.020000   32.316853    9.985179  1 Cwid
    5.020000   34.786705    9.985179  1 Cwid
    5.020000   24.907373   11.411139  1 Cwid
    5.020000   23.672415   12.124126  1 Cwid
    5.020000   26.142265   12.124126  1 Cwid
    5.020000   23.672415   13.550035  1 Cwid
    5.020000   26.142265   13.550035  1 Cwid
    5.020000   27.377155   11.411139  1 Cwid
    5.020000   29.847004   11.411139  1 Cwid
    5.020000   28.612114   12.124126  1 Cwid
    5.020000   31.081966   12.124126  1 Cwid
    5.020000   28.612114   13.550035  1 Cwid
    5.020000   31.081966   13.550035  1 Cwid
    5.020000   32.316853   11.411139  1 Cwid
    5.020000   34.786705   11.411139  1 Cwid
    5.020000   33.551815   12.124126  1 Cwid
    5.020000   33.551815   13.550035  1 Cwid
    5.020000   24.907373   14.263074  1 Cwid
    5.020000   24.907373   15.689022  1 Cwid
    5.020000   23.672415   16.402060  1 Cwid
    5.020000   26.142265   16.402060  1 Cwid
    5.020000   27.377155   14.263074  1 Cwid
    5.020000   29.847004   14.263074  1 Cwid
    5.020000   27.377155   15.689022  1 Cwid
    5.020000   29.847004   15.689022  1 Cwid
    5.020000   28.612114   16.402060  1 Cwid
    5.020000   31.081966   16.402060  1 Cwid
    5.020000   32.316853   14.263074  1 Cwid
    5.020000   34.786705   14.263074  1 Cwid
    5.020000   32.316853   15.689022  1 Cwid
    5.020000   34.786705   15.689022  1 Cwid
    5.020000   33.551815   16.402060  1 Cwid
    5.020000   23.672415   17.828009  1 Cwid
    5.020000   26.142265   17.828009  1 Cwid
    5.020000   24.907373   18.540920  1 Cwid
    5.020000   24.907373   19.966866  1 Cwid
    5.020000   23.672415   20.679905  1 Cwid
    5.020000   26.142265   20.679905  1 Cwid
    5.020000   28.612114   17.828009  1 Cwid
    5.020000   31.081966   17.828009  1 Cwid
    5.020000   27.377155   18.540920  1 Cwid
    5.020000   29.847004   18.540920  1 Cwid
    5.020000   27.377155   19.966866  1 Cwid
    5.020000   29.847004   19.966866  1 Cwid
    5.020000   28.612114   20.679905  1 Cwid
    5.020000   31.081966   20.679905  1 Cwid
    5.020000   33.551815   17.828009  1 Cwid
    5.020000   32.316853   18.540920  1 Cwid
    5.020000   34.786705   18.540920  1 Cwid
    5.020000   32.316853   19.966866  1 Cwid
    5.020000   34.786705   19.966866  1 Cwid
    5.020000   33.551815   20.679905  1 Cwid
    5.020000   23.672415  107.663643  1 Cwid
    5.020000   26.142265  107.663643  1 Cwid
    5.020000   24.907373  108.376541  1 Cwid
    5.020000   24.907373  109.802498  1 Cwid
    5.020000   28.612114  107.663643  1 Cwid
    5.020000   31.081966  107.663643  1 Cwid
    5.020000   27.377155  108.376541  1 Cwid
    5.020000   29.847004  108.376541  1 Cwid
    5.020000   27.377155  109.802498  1 Cwid
    5.020000   29.847004  109.802498  1 Cwid
    5.020000   33.551815  107.663643  1 Cwid
    5.020000   32.316853  108.376541  1 Cwid
    5.020000   34.786705  108.376541  1 Cwid
    5.020000   32.316853  109.802498  1 Cwid
    5.020000   34.786705  109.802498  1 Cwid
    5.020000   23.672415  110.515533  1 Cwid
    5.020000   26.142265  110.515533  1 Cwid
    5.020000   23.672415  111.941483  1 Cwid
    5.020000   26.142265  111.941483  1 Cwid
    5.020000   24.907373  112.654518  1 Cwid
    5.020000   28.612114  110.515533  1 Cwid
    5.020000   31.081966  110.515533  1 Cwid
    5.020000   28.612114  111.941483  1 Cwid
    5.020000   31.081966  111.941483  1 Cwid
    5.020000   27.377155  112.654518  1 Cwid
    5.020000   29.847004  112.654518  1 Cwid
    5.020000   33.551815  110.515533  1 Cwid
    5.020000   33.551815  111.941483  1 Cwid
    5.020000   32.316853  112.654518  1 Cwid
    5.020000   34.786705  112.654518  1 Cwid
    5.020000   24.907373  114.080475  1 Cwid
    5.020000   23.672415  114.793373  1 Cwid
    5.020000   26.142265  114.793373  1 Cwid
    5.020000   23.672415  116.219330  1 Cwid
    5.020000   26.142265  116.219330  1 Cwid
    5.020000   24.907373  116.932365  1 Cwid
    5.020000   27.377155  114.080475  1 Cwid
    5.020000   29.847004  114.080475  1 Cwid
    5.020000   28.612114  114.793373  1 Cwid
    5.020000   31.081966  114.793373  1 Cwid
    5.020000   28.612114  116.219330  1 Cwid
    5.020000   31.081966  116.219330  1 Cwid
    5.020000   27.377155  116.932365  1 Cwid
    5.020000   29.847004  116.932365  1 Cwid
    5.020000   32.316853  114.080475  1 Cwid
    5.020000   34.786705  114.080475  1 Cwid
    5.020000   33.551815  114.793373  1 Cwid
    5.020000   33.551815  116.219330  1 Cwid
    5.020000   32.316853  116.932365  1 Cwid
    5.020000   34.786705  116.932365  1 Cwid
    5.020000   24.907373  118.358315  1 Cwid
    5.020000   23.672415  119.071350  1 Cwid
    5.020000   26.142265  119.071350  1 Cwid
    5.020000   23.672415  120.497307  1 Cwid
    5.020000   26.142265  120.497307  1 Cwid
    5.020000   27.377155  118.358315  1 Cwid
    5.020000   29.847004  118.358315  1 Cwid
    5.020000   28.612114  119.071350  1 Cwid
    5.020000   31.081966  119.071350  1 Cwid
    5.020000   28.612114  120.497307  1 Cwid
    5.020000   31.081966  120.497307  1 Cwid
    5.020000   32.316853  118.358315  1 Cwid
    5.020000   34.786705  118.358315  1 Cwid
    5.020000   33.551815  119.071350  1 Cwid
    5.020000   33.551815  120.497307  1 Cwid
    5.020000   24.907373  121.210213  1 Cwid
    5.020000   24.907373  122.636162  1 Cwid
    5.020000   23.672415  123.349197  1 Cwid
    5.020000   26.142265  123.349197  1 Cwid
    5.020000   27.377155  121.210213  1 Cwid
    5.020000   29.847004  121.210213  1 Cwid
    5.020000   27.377155  122.636162  1 Cwid
    5.020000   29.847004  122.636162  1 Cwid
    5.020000   28.612114  123.349197  1 Cwid
    5.020000   31.081966  123.349197  1 Cwid
    5.020000   32.316853  121.210213  1 Cwid
    5.020000   34.786705  121.210213  1 Cwid
    5.020000   32.316853  122.636162  1 Cwid
    5.020000   34.786705  122.636162  1 Cwid
    5.020000   33.551815  123.349197  1 Cwid
    5.020000   23.672415  124.775139  1 Cwid
    5.020000   26.142265  124.775139  1 Cwid
    5.020000   24.907373  125.488182  1 Cwid
    5.020000   24.907373  126.914131  1 Cwid
    5.020000   23.672415  127.627045  1 Cwid
    5.020000   26.142265  127.627045  1 Cwid
    5.020000   28.612114  124.775139  1 Cwid
    5.020000   31.081966  124.775139  1 Cwid
    5.020000   27.377155  125.488182  1 Cwid
    5.020000   29.847004  125.488182  1 Cwid
    5.020000   27.377155  126.914131  1 Cwid
    5.020000   29.847004  126.914131  1 Cwid
    5.020000   28.612114  127.627045  1 Cwid
    5.020000   31.081966  127.627045  1 Cwid
    5.020000   33.551815  124.775139  1 Cwid
    5.020000   32.316853  125.488182  1 Cwid
    5.020000   34.786705  125.488182  1 Cwid
    5.020000   32.316853  126.914131  1 Cwid
    5.020000   34.786705  126.914131  1 Cwid
    5.020000   33.551815  127.627045  1 Cwid
    5.020000   36.021595    0.716428  1 Cwid
    5.020000   38.491444    0.716428  1 Cwid
    5.020000   37.256554    1.429413  1 Cwid
    5.020000   37.256554    2.855374  1 Cwid
    5.020000   40.961296    0.716428  1 Cwid
    5.020000   39.726406    1.429413  1 Cwid
    5.020000   42.196255    1.429413  1 Cwid
    5.020000   39.726406    2.855374  1 Cwid
    5.020000   42.196255    2.855374  1 Cwid
    5.020000   43.431149    0.716428  1 Cwid
    5.020000   45.900997    0.716428  1 Cwid
    5.020000   44.666035    1.429413  1 Cwid
    5.020000   44.666035    2.855374  1 Cwid
    5.020000   36.021595    3.568348  1 Cwid
    5.020000   38.491444    3.568348  1 Cwid
    5.020000   36.021595    4.994309  1 Cwid
    5.020000   38.491444    4.994309  1 Cwid
    5.020000   37.256554    5.707296  1 Cwid
    5.020000   40.961296    3.568348  1 Cwid
    5.020000   40.961296    4.994309  1 Cwid
    5.020000   39.726406    5.707296  1 Cwid
    5.020000   42.196255    5.707296  1 Cwid
    5.020000   43.431149    3.568348  1 Cwid
    5.020000   45.900997    3.568348  1 Cwid
    5.020000   43.431149    4.994309  1 Cwid
    5.020000   45.900997    4.994309  1 Cwid
    5.020000   44.666035    5.707296  1 Cwid
    5.020000   37.256554    7.133257  1 Cwid
    5.020000   36.021595    7.846244  1 Cwid
    5.020000   38.491444    7.846244  1 Cwid
    5.020000   36.021595    9.272204  1 Cwid
    5.020000   38.491444    9.272204  1 Cwid
    5.020000   37.256554    9.985179  1 Cwid
    5.020000   39.726406    7.133257  1 Cwid
    5.020000   42.196255    7.133257  1 Cwid
    5.020000   40.961296    7.846244  1 Cwid
    5.020000   40.961296    9.272204  1 Cwid
    5.020000   39.726406    9.985179  1 Cwid
    5.020000   42.196255    9.985179  1 Cwid
    5.020000   44.666035    7.133257  1 Cwid
    5.020000   43.431149    7.846244  1 Cwid
    5.020000   45.900997    7.846244  1 Cwid
    5.020000   43.431149    9.272204  1 Cwid
    5.020000   45.900997    9.272204  1 Cwid
    5.020000   44.666035    9.985179  1 Cwid
    5.020000   37.256554   11.411139  1 Cwid
    5.020000   36.021595   12.124126  1 Cwid
    5.020000   38.491444   12.124126  1 Cwid
    5.020000   36.021595   13.550035  1 Cwid
    5.020000   38.491444   13.550035  1 Cwid
    5.020000   39.726406   11.411139  1 Cwid
    5.020000   42.196255   11.411139  1 Cwid
    5.020000   40.961296   12.124126  1 Cwid
    5.020000   40.961296   13.550035  1 Cwid
    5.020000   44.666035   11.411139  1 Cwid
    5.020000   43.431149   12.124126  1 Cwid
    5.020000   45.900997   12.124126  1 Cwid
    5.020000   43.431149   13.550035  1 Cwid
    5.020000   45.900997   13.550035  1 Cwid
    5.020000   37.256554   14.263074  1 Cwid
    5.020000   37.256554   15.689022  1 Cwid
    5.020000   36.021595   16.402060  1 Cwid
    5.020000   38.491444   16.402060  1 Cwid
    5.020000   39.726406   14.263074  1 Cwid
    5.020000   42.196255   14.263074  1 Cwid
    5.020000   39.726406   15.689022  1 Cwid
    5.020000   42.196255   15.689022  1 Cwid
    5.020000   40.961296   16.402060  1 Cwid
    5.020000   44.666035   14.263074  1 Cwid
    5.020000   44.666035   15.689022  1 Cwid
    5.020000   43.431149   16.402060  1 Cwid
    5.020000   45.900997   16.402060  1 Cwid
    5.020000   36.021595   17.828009  1 Cwid
    5.020000   38.491444   17.828009  1 Cwid
    5.020000   37.256554   18.540920  1 Cwid
    5.020000   37.256554   19.966866  1 Cwid
    5.020000   36.021595   20.679905  1 Cwid
    5.020000   38.491444   20.679905  1 Cwid
    5.020000   40.961296   17.828009  1 Cwid
    5.020000   39.726406   18.540920  1 Cwid
    5.020000   42.196255   18.540920  1 Cwid
    5.020000   39.726406   19.966866  1 Cwid
    5.020000   42.196255   19.966866  1 Cwid
    5.020000   40.961296   20.679905  1 Cwid
    5.020000   43.431149   17.828009  1 Cwid
    5.020000   45.900997   17.828009  1 Cwid
    5.020000   44.666035   18.540920  1 Cwid
    5.020000   44.666035   19.966866  1 Cwid
    5.020000   43.431149   20.679905  1 Cwid
    5.020000   45.900997   20.679905  1 Cwid
    5.020000   36.021595  107.663643  1 Cwid
    5.020000   38.491444  107.663643  1 Cwid
    5.020000   37.256554  108.376541  1 Cwid
    5.020000   37.256554  109.802498  1 Cwid
    5.020000   40.961296  107.663643  1 Cwid
    5.020000   39.726406  108.376541  1 Cwid
    5.020000   42.196255  108.376541  1 Cwid
    5.020000   39.726406  109.802498  1 Cwid
    5.020000   42.196255  109.802498  1 Cwid
    5.020000   43.431149  107.663643  1 Cwid
    5.020000   45.900997  107.663643  1 Cwid
    5.020000   44.666035  108.376541  1 Cwid
    5.020000   44.666035  109.802498  1 Cwid
    5.020000   36.021595  110.515533  1 Cwid
    5.020000   38.491444  110.515533  1 Cwid
    5.020000   36.021595  111.941483  1 Cwid
    5.020000   38.491444  111.941483  1 Cwid
    5.020000   37.256554  112.654518  1 Cwid
    5.020000   40.961296  110.515533  1 Cwid
    5.020000   40.961296  111.941483  1 Cwid
    5.020000   39.726406  112.654518  1 Cwid
    5.020000   42.196255  112.654518  1 Cwid
    5.020000   43.431149  110.515533  1 Cwid
    5.020000   45.900997  110.515533  1 Cwid
    5.020000   43.431149  111.941483  1 Cwid
    5.020000   45.900997  111.941483  1 Cwid
    5.020000   44.666035  112.654518  1 Cwid
    5.020000   37.256554  114.080475  1 Cwid
    5.020000   36.021595  114.793373  1 Cwid
    5.020000   38.491444  114.793373  1 Cwid
    5.020000   36.021595  116.219330  1 Cwid
    5.020000   38.491444  116.219330  1 Cwid
    5.020000   37.256554  116.932365  1 Cwid
    5.020000   39.726406  114.080475  1 Cwid
    5.020000   42.196255  114.080475  1 Cwid
    5.020000   40.961296  114.793373  1 Cwid
    5.020000   40.961296  116.219330  1 Cwid
    5.020000   39.726406  116.932365  1 Cwid
    5.020000   42.196255  116.932365  1 Cwid
    5.020000   44.666035  114.080475  1 Cwid
    5.020000   43.431149  114.793373  1 Cwid
    5.020000   45.900997  114.793373  1 Cwid
    5.020000   43.431149  116.219330  1 Cwid
    5.020000   45.900997  116.219330  1 Cwid
    5.020000   44.666035  116.932365  1 Cwid
    5.020000   37.256554  118.358315  1 Cwid
    5.020000   36.021595  119.071350  1 Cwid
    5.020000   38.491444  119.071350  1 Cwid
    5.020000   36.021595  120.497307  1 Cwid
    5.020000   38.491444  120.497307  1 Cwid
    5.020000   39.726406  118.358315  1 Cwid
    5.020000   42.196255  118.358315  1 Cwid
    5.020000   40.961296  119.071350  1 Cwid
    5.020000   40.961296  120.497307  1 Cwid
    5.020000   44.666035  118.358315  1 Cwid
    5.020000   43.431149  119.071350  1 Cwid
    5.020000   45.900997  119.071350  1 Cwid
    5.020000   43.431149  120.497307  1 Cwid
    5.020000   45.900997  120.497307  1 Cwid
    5.020000   37.256554  121.210213  1 Cwid
    5.020000   37.256554  122.636162  1 Cwid
    5.020000   36.021595  123.349197  1 Cwid
    5.020000   38.491444  123.349197  1 Cwid
    5.020000   39.726406  121.210213  1 Cwid
    5.020000   42.196255  121.210213  1 Cwid
    5.020000   39.726406  122.636162  1 Cwid
    5.020000   42.196255  122.636162  1 Cwid
    5.020000   40.961296  123.349197  1 Cwid
    5.020000   44.666035  121.210213  1 Cwid
    5.020000   44.666035  122.636162  1 Cwid
    5.020000   43.431149  123.349197  1 Cwid
    5.020000   45.900997  123.349197  1 Cwid
    5.020000   36.021595  124.775139  1 Cwid
    5.020000   38.491444  124.775139  1 Cwid
    5.020000   37.256554  125.488182  1 Cwid
    5.020000   37.256554  126.914131  1 Cwid
    5.020000   36.021595  127.627045  1 Cwid
    5.020000   38.491444  127.627045  1 Cwid
    5.020000   40.961296  124.775139  1 Cwid
    5.020000   39.726406  125.488182  1 Cwid
    5.020000   42.196255  125.488182  1 Cwid
    5.020000   39.726406  126.914131  1 Cwid
    5.020000   42.196255  126.914131  1 Cwid
    5.020000   40.961296  127.627045  1 Cwid
    5.020000   43.431149  124.775139  1 Cwid
    5.020000   45.900997  124.775139  1 Cwid
    5.020000   44.666035  125.488182  1 Cwid
    5.020000   44.666035  126.914131  1 Cwid
    5.020000   43.431149  127.627045  1 Cwid
    5.020000   45.900997  127.627045  1 Cwid
    5.020000   48.370846    0.716428  1 Cwid
    5.020000   47.135883    1.429413  1 Cwid
    5.020000   49.605736    1.429413  1 Cwid
    5.020000   47.135883    2.855374  1 Cwid
    5.020000   49.605736    2.855374  1 Cwid
    5.020000   50.840626    0.716428  1 Cwid
    5.020000   53.310478    0.716428  1 Cwid
    5.020000   52.075588    1.429413  1 Cwid
    5.020000   54.545437    1.429413  1 Cwid
    5.020000   52.075588    2.855374  1 Cwid
    5.020000   54.545437    2.855374  1 Cwid
    5.020000   55.780327    0.716428  1 Cwid
    5.020000   58.250175    0.716428  1 Cwid
    5.020000   57.015285    1.429413  1 Cwid
    5.020000   57.015285    2.855374  1 Cwid
    5.020000   48.370846    3.568348  1 Cwid
    5.020000   48.370846    4.994309  1 Cwid
    5.020000   47.135883    5.707296  1 Cwid
    5.020000   49.605736    5.707296  1 Cwid
    5.020000   50.840626    3.568348  1 Cwid
    5.020000   53.310478    3.568348  1 Cwid
    5.020000   50.840626    4.994309  1 Cwid
    5.020000   53.310478    4.994309  1 Cwid
    5.020000   52.075588    5.707296  1 Cwid
    5.020000   54.545437    5.707296  1 Cwid
    5.020000   55.780327    3.568348  1 Cwid
    5.020000   58.250175    3.568348  1 Cwid
    5.020000   55.780327    4.994309  1 Cwid
    5.020000   58.250175    4.994309  1 Cwid
    5.020000   57.015285    5.707296  1 Cwid
    5.020000   47.135883    7.133257  1 Cwid
    5.020000   49.605736    7.133257  1 Cwid
    5.020000   48.370846    7.846244  1 Cwid
    5.020000   48.370846    9.272204  1 Cwid
    5.020000   47.135883    9.985179  1 Cwid
    5.020000   49.605736    9.985179  1 Cwid
    5.020000   52.075588    7.133257  1 Cwid
    5.020000   54.545437    7.133257  1 Cwid
    5.020000   50.840626    7.846244  1 Cwid
    5.020000   53.310478    7.846244  1 Cwid
    5.020000   50.840626    9.272204  1 Cwid
    5.020000   53.310478    9.272204  1 Cwid
    5.020000   52.075588    9.985179  1 Cwid
    5.020000   54.545437    9.985179  1 Cwid
    5.020000   57.015285    7.133257  1 Cwid
    5.020000   55.780327    7.846244  1 Cwid
    5.020000   58.250175    7.846244  1 Cwid
    5.020000   55.780327    9.272204  1 Cwid
    5.020000   58.250175    9.272204  1 Cwid
    5.020000   57.015285    9.985179  1 Cwid
    5.020000   47.135883   11.411139  1 Cwid
    5.020000   49.605736   11.411139  1 Cwid
    5.020000   48.370846   12.124126  1 Cwid
    5.020000   48.370846   13.550035  1 Cwid
    5.020000   52.075588   11.411139  1 Cwid
    5.020000   54.545437   11.411139  1 Cwid
    5.020000   50.840626   12.124126  1 Cwid
    5.020000   53.310478   12.124126  1 Cwid
    5.020000   50.840626   13.550035  1 Cwid
    5.020000   53.310478   13.550035  1 Cwid
    5.020000   57.015285   11.411139  1 Cwid
    5.020000   55.780327   12.124126  1 Cwid
    5.020000   58.250175   12.124126  1 Cwid
    5.020000   55.780327   13.550035  1 Cwid
    5.020000   58.250175   13.550035  1 Cwid