%block AtomicCoordinatesAndAtomicSpecies
    5.250000   11.842026    0.749252  1 Cwid
    5.250000   10.550557    1.494904  1 Cwid
    5.250000   10.550557    2.986198  1 Cwid
    5.250000   11.842026    3.731838  1 Cwid
    5.250000   11.842026    5.223132  1 Cwid
    5.250000   10.550557    5.968785  1 Cwid
    5.250000   10.550557    7.460078  1 Cwid
    5.250000   11.842026    8.205732  1 Cwid
    5.250000   11.842026    9.697025  1 Cwid
    5.250000   10.550557   10.442666  1 Cwid
    5.250000   10.550557   11.933959  1 Cwid
    5.250000   11.842026   12.679612  1 Cwid
    5.250000   11.842026   14.170853  1 Cwid
    5.250000   10.550557   14.916560  1 Cwid
    5.250000   10.550557   16.407841  1 Cwid
    5.250000   11.842026   17.153547  1 Cwid
    5.250000   11.842026   18.644827  1 Cwid
    5.250000   10.550557   19.390402  1 Cwid
    5.250000   10.550557   20.881681  1 Cwid
    5.250000   11.842026   21.627388  1 Cwid
    5.250000   11.842026  112.596428  1 Cwid
    5.250000   10.550557  113.341988  1 Cwid
    5.250000   10.550557  114.833275  1 Cwid
    5.250000   11.842026  115.578979  1 Cwid
    5.250000   11.842026  117.070259  1 Cwid
    5.250000   10.550557  117.815964  1 Cwid
    5.250000   10.550557  119.307251  1 Cwid
    5.250000   11.842026  120.052818  1 Cwid
    5.250000   11.842026  121.544106  1 Cwid
    5.250000   10.550557  122.289810  1 Cwid
    5.250000   10.550557  123.781090  1 Cwid
    5.250000   11.842026  124.526794  1 Cwid
    5.250000   11.842026  126.018082  1 Cwid
    5.250000   10.550557  126.763657  1 Cwid
    5.250000   10.550557  128.254929  1 Cwid
    5.250000   11.842026  129.000641  1 Cwid
    5.250000   11.842026  130.491913  1 Cwid
    5.250000   10.550557  131.237625  1 Cwid
    5.250000   10.550557  132.728897  1 Cwid
    5.250000   11.842026  133.474487  1 Cwid
    5.250000   14.425036    0.749252  1 Cwid
    5.250000   13.133494    1.494904  1 Cwid
    5.250000   15.716504    1.494904  1 Cwid
    5.250000   13.133494    2.986198  1 Cwid
    5.250000   15.716504    2.986198  1 Cwid
    5.250000   17.008045    0.749252  1 Cwid
    5.250000   19.591057    0.749252  1 Cwid
    5.250000   18.299515    1.494904  1 Cwid
    5.250000   18.299515    2.986198  1 Cwid
    5.250000   22.173994    0.749252  1 Cwid
    5.250000   20.882526    1.494904  1 Cwid
    5.250000   23.465534    1.494904  1 Cwid
    5.250000   20.882526    2.986198  1 Cwid
    5.250000   23.465534    2.986198  1 Cwid
    5.250000   14.425036    3.731838  1 Cwid
    5.250000   14.425036    5.223132  1 Cwid
    5.250000   13.133494    5.968785  1 Cwid
    5.250000   15.716504    5.968785  1 Cwid
    5.250000   17.008045    3.731838  1 Cwid
    5.250000   19.591057    3.731838  1 Cwid
    5.250000   17.008045    5.223132  1 Cwid
    5.250000   19.591057    5.223132  1 Cwid
    5.250000   18.299515    5.968785  1 Cwid
    5.250000   22.173994    3.731838  1 Cwid
    5.250000   22.173994    5.223132  1 Cwid
    5.250000   20.882526    5.968785  1 Cwid
    5.250000   23.465534    5.968785  1 Cwid
    5.250000   13.133494    7.460078  1 Cwid
    5.250000   15.716504    7.460078  1 Cwid
    5.250000   14.425036    8.205732  1 Cwid
    5.250000   14.425036    9.697025  1 Cwid
    5.250000   13.133494   10.442666  1 Cwid
    5.250000   15.716504   10.442666  1 Cwid
    5.250000   18.299515    7.460078  1 Cwid
    5.250000   17.008045    8.205732  1 Cwid
    5.250000   19.591057    8.205732  1 Cwid
    5.250000   17.008045    9.697025  1 Cwid
    5.250000   19.591057    9.697025  1 Cwid
    5.250000   18.299515   10.442666  1 Cwid
    5.250000   20.882526    7.460078  1 Cwid
    5.250000   23.465534    7.460078  1 Cwid
    5.250000   22.173994    8.205732  1 Cwid
    5.250000   22.173994    9.697025  1 Cwid
    5.250000   20.882526   10.442666  1 Cwid
    5.250000   23.465534   10.442666  1 Cwid
    5.250000   13.133494   11.933959  1 Cwid
    5.250000   15.716504   11.933959  1 Cwid
    5.250000   14.425036   12.679612  1 Cwid
    5.250000   14.425036   14.170853  1 Cwid
    5.250000   18.299515   11.933959  1 Cwid
    5.250000   17.008045   12.679612  1 Cwid
    5.250000   19.591057   12.679612  1 Cwid
    5.250000   17.008045   14.170853  1 Cwid
    5.250000   19.591057   14.170853  1 Cwid
    5.250000   20.882526   11.933959  1 Cwid
    5.250000   23.465534   11.933959  1 Cwid
    5.250000   22.173994   12.679612  1 Cwid
    5.250000   22.173994   14.170853  1 Cwid
    5.250000   13.133494   14.916560  1 Cwid
    5.250000   15.716504   14.916560  1 Cwid
    5.250000   13.133494   16.407841  1 Cwid
    5.250000   15.716504   16.407841  1 Cwid
    5.250000   14.425036   17.153547  1 Cwid
    5.250000   18.299515   14.916560  1 Cwid
    5.250000   18.299515   16.407841  1 Cwid
    5.250000   17.008045   17.153547  1 Cwid
    5.250000   19.591057   17.153547  1 Cwid
    5.250000   20.882526   14.916560  1 Cwid
    5.250000   23.465534   14.916560  1 Cwid
    5.250000   20.882526   16.407841  1 Cwid
    5.250000   23.465534   16.407841  1 Cwid
    5.250000   22.173994   17.153547  1 Cwid
    5.250000   14.425036   18.644827  1 Cwid
    5.250000   13.133494   19.390402  1 Cwid
    5.250000   15.716504   19.390402  1 Cwid
    5.250000   13.133494   20.881681  1 Cwid
    5.250000   15.716504   20.881681  1 Cwid
    5.250000   14.425036   21.627388  1 Cwid
    5.250000   17.008045   18.644827  1 Cwid
    5.250000   19.591057   18.644827  1 Cwid
    5.250000   18.299515   19.390402  1 Cwid
    5.250000   18.299515   20.881681  1 Cwid
    5.250000   17.008045   21.627388  1 Cwid
    5.250000   19.591057   21.627388  1 Cwid
    5.250000   22.173994   18.644827  1 Cwid
    5.250000   20.882526   19.390402  1 Cwid
    5.250000   23.465534   19.390402  1 Cwid
    5.250000   20.882526   20.881681  1 Cwid
    5.250000   23.465534   20.881681  1 Cwid
    5.250000   22.173994   21.627388  1 Cwid
    5.250000   14.425036  112.596428  1 Cwid
    5.250000   13.133494  113.341988  1 Cwid
    5.250000   15.716504  113.341988  1 Cwid
    5.250000   13.133494  114.833275  1 Cwid
    5.250000   15.716504  114.833275  1 Cwid
    5.250000   17.008045  112.596428  1 Cwid
    5.250000   19.591057  112.596428  1 Cwid
    5.250000   18.299515  113.341988  1 Cwid
    5.250000   18.299515  114.833275  1 Cwid
    5.250000   22.173994  112.596428  1 Cwid
    5.250000   20.882526  113.341988  1 Cwid
    5.250000   23.465534  113.341988  1 Cwid
    5.250000   20.882526  114.833275  1 Cwid
    5.250000   23.465534  114.833275  1 Cwid
    5.250000   14.425036  115.578979  1 Cwid
    5.250000   14.425036  117.070259  1 Cwid
    5.250000   13.133494  117.815964  1 Cwid
    5.250000   15.716504  117.815964  1 Cwid
    5.250000   17.008045  115.578979  1 Cwid
    5.250000   19.591057  115.578979  1 Cwid
    5.250000   17.008045  117.070259  1 Cwid
    5.250000   19.591057  117.070259  1 Cwid
    5.250000   18.299515  117.815964  1 Cwid
    5.250000   22.173994  115.578979  1 Cwid
    5.250000   22.173994  117.070259  1 Cwid
    5.250000   20.882526  117.815964  1 Cwid
    5.250000   23.465534  117.815964  1 Cwid
    5.250000   13.133494  119.307251  1 Cwid
    5.250000   15.716504  119.307251  1 Cwid
    5.250000   14.425036  120.052818  1 Cwid
    5.250000   14.425036  121.544106  1 Cwid
    5.250000   13.133494  122.289810  1 Cwid
    5.250000   15.716504  122.289810  1 Cwid
    5.250000   18.299515  119.307251  1 Cwid
    5.250000   17.008045  120.052818  1 Cwid
    5.250000   19.591057  120.052818  1 Cwid
    5.250000   17.008045  121.544106  1 Cwid
    5.250000   19.591057  121.544106  1 Cwid
    5.250000   18.299515  122.289810  1 Cwid
    5.250000   20.882526  119.307251  1 Cwid
    5.250000   23.465534  119.307251  1 Cwid
    5.250000   22.173994  120.052818  1 Cwid
    5.250000   22.173994  121.544106  1 Cwid
    5.250000   20.882526  122.289810  1 Cwid
    5.250000   23.465534  122.289810  1 Cwid
    5.250000   13.133494  123.781090  1 Cwid
    5.250000   15.716504  123.781090  1 Cwid
    5.250000   14.425036  124.526794  1 Cwid
    5.250000   14.425036  126.018082  1 Cwid
    5.250000   18.299515  123.781090  1 Cwid
    5.250000   17.008045  124.526794  1 Cwid
    5.250000   19.591057  124.526794  1 Cwid
    5.250000   17.008045  126.018082  1 Cwid
    5.250000   19.591057  126.018082  1 Cwid
    5.250000   20.882526  123.781090  1 Cwid
    5.250000   23.465534  123.781090  1 Cwid
    5.250000   22.173994  124.526794  1 Cwid
    5.250000   22.173994  126.018082  1 Cwid
    5.250000   13.133494  126.763657  1 Cwid
    5.250000   15.716504  126.763657  1 Cwid
    5.250000   13.133494  128.254929  1 Cwid
    5.250000   15.716504  128.254929  1 Cwid
    5.250000   14.425036  129.000641  1 Cwid
    5.250000   18.299515  126.763657  1 Cwid
    5.250000   18.299515  128.254929  1 Cwid
    5.250000   17.008045  129.000641  1 Cwid
    5.250000   19.591057  129.000641  1 Cwid
    5.250000   20.882526  126.763657  1 Cwid
    5.250000   23.465534  126.763657  1 Cwid
    5.250000   20.882526  128.254929  1 Cwid
    5.250000   23.465534  128.254929  1 Cwid
    5.250000   22.173994  129.000641  1 Cwid
    5.250000   14.425036  130.491913  1 Cwid
    5.250000   13.133494  131.237625  1 Cwid
    5.250000   15.716504  131.237625  1 Cwid
    5.250000   13.133494  132.728897  1 Cwid
    5.250000   15.716504  132.728897  1 Cwid
    5.250000   14.425036  133.474487  1 Cwid
    5.250000   17.008045  130.491913  1 Cwid
    5.250000   19.591057  130.491913  1 Cwid
    5.250000   18.299515  131.237625  1 Cwid
    5.250000   18.299515  132.728897  1 Cwid
    5.250000   17.008045  133.474487  1 Cwid
    5.250000   19.591057  133.474487  1 Cwid
    5.250000   22.173994  130.491913  1 Cwid
    5.250000   20.882526  131.237625  1 Cwid
    5.250000   23.465534  131.237625  1 Cwid
    5.250000   20.882526  132.728897  1 Cwid
    5.250000   23.465534  132.728897  1 Cwid
    5.250000   22.173994  133.474487  1 Cwid
    5.250000   24.757004    0.749252  1 Cwid
    5.250000   27.340015    0.749252  1 Cwid
    5.250000   26.048546    1.494904  1 Cwid
    5.250000   26.048546    2.986198  1 Cwid
    5.250000   29.923023    0.749252  1 Cwid
    5.250000   32.506039    0.749252  1 Cwid
    5.250000   28.631485    1.494904  1 Cwid
    5.250000   31.214493    1.494904  1 Cwid
    5.250000   28.631485    2.986198  1 Cwid
    5.250000   31.214493    2.986198  1 Cwid
    5.250000   35.089046    0.749252  1 Cwid
    5.250000   33.797501    1.494904  1 Cwid
    5.250000   36.380512    1.494904  1 Cwid
    5.250000   33.797501    2.986198  1 Cwid
    5.250000   36.380512    2.986198  1 Cwid
    5.250000   24.757004    3.731838  1 Cwid
    5.250000   27.340015    3.731838  1 Cwid
    5.250000   24.757004    5.223132  1 Cwid
    5.250000   27.340015    5.223132  1 Cwid
    5.250000   26.048546    5.968785  1 Cwid
    5.250000   29.923023    3.731838  1 Cwid
    5.250000   32.506039    3.731838  1 Cwid
    5.250000   29.923023    5.223132  1 Cwid
    5.250000   32.506039    5.223132  1 Cwid
    5.250000   28.631485    5.968785  1 Cwid
    5.250000   31.214493    5.968785  1 Cwid
    5.250000   35.089046    3.731838  1 Cwid
    5.250000   35.089046    5.223132  1 Cwid
    5.250000   33.797501    5.968785  1 Cwid
    5.250000   36.380512    5.968785  1 Cwid
    5.250000   26.048546    7.460078  1 Cwid
    5.250000   24.757004    8.205732  1 Cwid
    5.250000   27.340015    8.205732  1 Cwid
    5.250000   24.757004    9.697025  1 Cwid
    5.250000   27.340015    9.697025  1 Cwid
    5.250000   26.048546   10.442666  1 Cwid
    5.250000   28.631485    7.460078  1 Cwid
    5.250000   31.214493    7.460078  1 Cwid
    5.250000   29.923023    8.205732  1 Cwid
    5.250000   32.506039    8.205732  1 Cwid
    5.250000   29.923023    9.697025  1 Cwid
    5.250000   32.506039    9.697025  1 Cwid
    5.250000   28.631485   10.442666  1 Cwid
    5.250000   31.214493   10.442666  1 Cwid
    5.250000   33.797501    7.460078  1 Cwid
    5.250000   36.380512    7.460078  1 Cwid
    5.250000   35.089046    8.205732  1 Cwid
    5.250000   35.089046    9.697025  1 Cwid
    5.250000   33.797501   10.442666  1 Cwid
    5.250000   36.380512   10.442666  1 Cwid
    5.250000   26.048546   11.933959  1 Cwid
    5.250000   24.757004   12.679612  1 Cwid
    5.250000   27.340015   12.679612  1 Cwid
    5.250000   24.757004   14.170853  1 Cwid
    5.250000   27.340015   14.170853  1 Cwid
    5.250000   28.631485   11.933959  1 Cwid
    5.250000   31.214493   11.933959  1 Cwid
    5.250000   29.923023   12.679612  1 Cwid
    5.250000   32.506039   12.679612  1 Cwid
    5.250000   29.923023   14.170853  1 Cwid
    5.250000   32.506039   14.170853  1 Cwid
    5.250000   33.797501   11.933959  1 Cwid
    5.250000   36.380512   11.933959  1 Cwid
    5.250000   35.089046   12.679612  1 Cwid
    5.250000   35.089046   14.170853  1 Cwid
    5.250000   26.048546   14.916560  1 Cwid
    5.250000   26.048546   16.407841  1 Cwid
    5.250000   24.757004   17.153547  1 Cwid
    5.250000   27.340015   17.153547  1 Cwid
    5.250000   28.631485   14.916560  1 Cwid
    5.250000   31.214493   14.916560  1 Cwid
    5.250000   28.631485   16.407841  1 Cwid
    5.250000   31.214493   16.407841  1 Cwid
    5.250000   29.923023   17.153547  1 Cwid
    5.250000   32.506039   17.153547  1 Cwid
    5.250000   33.797501   14.916560  1 Cwid
    5.250000   36.380512   14.916560  1 Cwid
    5.250000   33.797501   16.407841  1 Cwid
    5.250000   36.380512   16.407841  1 Cwid
    5.250000   35.089046   17.153547  1 Cwid
    5.250000   24.757004   18.644827  1 Cwid
    5.250000   27.340015   18.644827  1 Cwid
    5.250000   26.048546   19.390402  1 Cwid
    5.250000   26.048546   20.881681  1 Cwid
    5.250000   24.757004   21.627388  1 Cwid
    5.250000   27.340015   21.627388  1 Cwid
    5.250000   29.923023   18.644827  1 Cwid
    5.250000   32.506039   18.644827  1 Cwid
    5.250000   28.631485   19.390402  1 Cwid
    5.250000   31.214493   19.390402  1 Cwid
    5.250000   28.631485   20.881681  1 Cwid
    5.250000   31.214493   20.881681  1 Cwid
    5.250000   29.923023   21.627388  1 Cwid
    5.250000   32.506039   21.627388  1 Cwid
    5.250000   35.089046   18.644827  1 Cwid
    5.250000   33.797501   19.390402  1 Cwid
    5.250000   36.380512   19.390402  1 Cwid
    5.250000   33.797501   20.881681  1 Cwid
    5.250000   36.380512   20.881681  1 Cwid
    5.250000   35.089046   21.627388  1 Cwid
    5.250000   24.757004  112.596428  1 Cwid
    5.250000   27.340015  112.596428  1 Cwid
    5.250000   26.048546  113.341988  1 Cwid
    5.250000   26.048546  114.833275  1 Cwid
    5.250000   29.923023  112.596428  1 Cwid
    5.250000   32.506039  112.596428  1 Cwid
    5.250000   28.631485  113.341988  1 Cwid
    5.250000   31.214493  113.341988  1 Cwid
    5.250000   28.631485  114.833275  1 Cwid
    5.250000   31.214493  114.833275  1 Cwid
    5.250000   35.089046  112.596428  1 Cwid
    5.250000   33.797501  113.341988  1 Cwid
    5.250000   36.380512  113.341988  1 Cwid
    5.250000   33.797501  114.833275  1 Cwid
    5.250000   36.380512  114.833275  1 Cwid
    5.250000   24.757004  115.578979  1 Cwid
    5.250000   27.340015  115.578979  1 Cwid
    5.250000   24.757004  117.070259  1 Cwid
    5.250000   27.340015  117.070259  1 Cwid
    5.250000   26.048546  117.815964  1 Cwid
    5.250000   29.923023  115.578979  1 Cwid
    5.250000   32.506039  115.578979  1 Cwid
    5.250000   29.923023  117.070259  1 Cwid
    5.250000   32.506039  117.070259  1 Cwid
    5.250000   28.631485  117.815964  1 Cwid
    5.250000   31.214493  117.815964  1 Cwid
    5.250000   35.089046  115.578979  1 Cwid
    5.250000   35.089046  117.070259  1 Cwid
    5.250000   33.797501  117.815964  1 Cwid
    5.250000   36.380512  117.815964  1 Cwid
    5.250000   26.048546  119.307251  1 Cwid
    5.250000   24.757004  120.052818  1 Cwid
    5.250000   27.340015  120.052818  1 Cwid
    5.250000   24.757004  121.544106  1 Cwid
    5.250000   27.340015  121.544106  1 Cwid
    5.250000   26.048546  122.289810  1 Cwid
    5.250000   28.631485  119.307251  1 Cwid
    5.250000   31.214493  119.307251  1 Cwid
    5.250000   29.923023  120.052818  1 Cwid
    5.250000   32.506039  120.052818  1 Cwid
    5.250000   29.923023  121.544106  1 Cwid
    5.250000   32.506039  121.544106  1 Cwid
    5.250000   28.631485  122.289810  1 Cwid
    5.250000   31.214493  122.289810  1 Cwid
    5.250000   33.797501  119.307251  1 Cwid
    5.250000   36.380512  119.307251  1 Cwid
    5.250000   35.089046  120.052818  1 Cwid
    5.250000   35.089046  121.544106  1 Cwid
    5.250000   33.797501  122.289810  1 Cwid
    5.250000   36.380512  122.289810  1 Cwid
    5.250000   26.048546  123.781090  1 Cwid
    5.250000   24.757004  124.526794  1 Cwid
    5.250000   27.340015  124.526794  1 Cwid
    5.250000   24.757004  126.018082  1 Cwid
    5.250000   27.340015  126.018082  1 Cwid
    5.250000   28.631485  123.781090  1 Cwid
    5.250000   31.214493  123.781090  1 Cwid
    5.250000   29.923023  124.526794  1 Cwid
    5.250000   32.506039  124.526794  1 Cwid
    5.250000   29.923023  126.018082  1 Cwid
    5.250000   32.506039  126.018082  1 Cwid
    5.250000   33.797501  123.781090  1 Cwid
    5.250000   36.380512  123.781090  1 Cwid
    5.250000   35.089046  124.526794  1 Cwid
    5.250000   35.089046  126.018082  1 Cwid
    5.250000   26.048546  126.763657  1 Cwid
    5.250000   26.048546  128.254929  1 Cwid
    5.250000   24.757004  129.000641  1 Cwid
    5.250000   27.340015  129.000641  1 Cwid
    5.250000   28.631485  126.763657  1 Cwid
    5.250000   31.214493  126.763657  1 Cwid
    5.250000   28.631485  128.254929  1 Cwid
    5.250000   31.214493  128.254929  1 Cwid
    5.250000   29.923023  129.000641  1 Cwid
    5.250000   32.506039  129.000641  1 Cwid
    5.250000   33.797501  126.763657  1 Cwid
    5.250000   36.380512  126.763657  1 Cwid
    5.250000   33.797501  128.254929  1 Cwid
    5.250000   36.380512  128.254929  1 Cwid
    5.250000   35.089046  129.000641  1 Cwid
    5.250000   24.757004  130.491913  1 Cwid
    5.250000   27.340015  130.491913  1 Cwid
    5.250000   26.048546  131.237625  1 Cwid
    5.250000   26.048546  132.728897  1 Cwid
    5.250000   24.757004  133.474487  1 Cwid
    5.250000   27.340015  133.474487  1 Cwid
    5.250000   29.923023  130.491913  1 Cwid
    5.250000   32.506039  130.491913  1 Cwid
    5.250000   28.631485  131.237625  1 Cwid
    5.250000   31.214493  131.237625  1 Cwid
    5.250000   28.631485  132.728897  1 Cwid
    5.250000   31.214493  132.728897  1 Cwid
    5.250000   29.923023  133.474487  1 Cwid
    5.250000   32.506039  133.474487  1 Cwid
    5.250000   35.089046  130.491913  1 Cwid
    5.250000   33.797501  131.237625  1 Cwid
    5.250000   36.380512  131.237625  1 Cwid
    5.250000   33.797501  132.728897  1 Cwid
    5.250000   36.380512  132.728897  1 Cwid
    5.250000   35.089046  133.474487  1 Cwid
    5.250000   37.671982    0.749252  1 Cwid
    5.250000   40.254993    0.749252  1 Cwid
    5.250000   38.963524    1.494904  1 Cwid
    5.250000   38.963524    2.986198  1 Cwid
    5.250000   42.838001    0.749252  1 Cwid
    5.250000   41.546535    1.494904  1 Cwid
    5.250000   44.129547    1.494904  1 Cwid
    5.250000   41.546535    2.986198  1 Cwid
    5.250000   44.129547    2.986198  1 Cwid
    5.250000   45.421017    0.749252  1 Cwid
    5.250000   48.004025    0.749252  1 Cwid
    5.250000   46.712482    1.494904  1 Cwid
    5.250000   46.712482    2.986198  1 Cwid
    5.250000   37.671982    3.731838  1 Cwid
    5.250000   40.254993    3.731838  1 Cwid
    5.250000   37.671982    5.223132  1 Cwid
    5.250000   40.254993    5.223132  1 Cwid
    5.250000   38.963524    5.968785  1 Cwid
    5.250000   42.838001    3.731838  1 Cwid
    5.250000   42.838001    5.223132  1 Cwid
    5.250000   41.546535    5.968785  1 Cwid
    5.250000   44.129547    5.968785  1 Cwid
    5.250000   45.421017    3.731838  1 Cwid
    5.250000   48.004025    3.731838  1 Cwid
    5.250000   45.421017    5.223132  1 Cwid
    5.250000   48.004025    5.223132  1 Cwid
    5.250000   46.712482    5.968785  1 Cwid
    5.250000   38.963524    7.460078  1 Cwid
    5.250000   37.671982    8.205732  1 Cwid
    5.250000   40.254993    8.205732  1 Cwid
    5.250000   37.671982    9.697025  1 Cwid
    5.250000   40.254993    9.697025  1 Cwid
    5.250000   38.963524   10.442666  1 Cwid
    5.250000   41.546535    7.460078  1 Cwid
    5.250000   44.129547    7.460078  1 Cwid
    5.250000   42.838001    8.205732  1 Cwid
    5.250000   42.838001    9.697025  1 Cwid
    5.250000   41.546535   10.442666  1 Cwid
    5.250000   44.129547   10.442666  1 Cwid
    5.250000   46.712482    7.460078  1 Cwid
    5.250000   45.421017    8.205732  1 Cwid
    5.250000   48.004025    8.205732  1 Cwid
    5.250000   45.421017    9.697025  1 Cwid
    5.250000   48.004025    9.697025  1 Cwid
    5.250000   46.712482   10.442666  1 Cwid
    5.250000   38.963524   11.933959  1 Cwid
    5.250000   37.671982   12.679612  1 Cwid
    5.250000   40.254993   12.679612  1 Cwid
    5.250000   37.671982   14.170853  1 Cwid
    5.250000   40.254993   14.170853  1 Cwid
    5.250000   41.546535   11.933959  1 Cwid
    5.250000   44.129547   11.933959  1 Cwid
    5.250000   42.838001   12.679612  1 Cwid
    5.250000   42.838001   14.170853  1 Cwid
    5.250000   46.712482   11.933959  1 Cwid
    5.250000   45.421017   12.679612  1 Cwid
    5.250000   48.004025   12.679612  1 Cwid
    5.250000   45.421017   14.170853  1 Cwid
    5.250000   48.004025   14.170853  1 Cwid
    5.250000   38.963524   14.916560  1 Cwid
    5.250000   38.963524   16.407841  1 Cwid
    5.250000   37.671982   17.153547  1 Cwid
    5.250000   40.254993   17.153547  1 Cwid
    5.250000   41.546535   14.916560  1 Cwid
    5.250000   44.129547   14.916560  1 Cwid
    5.250000   41.546535   16.407841  1 Cwid
    5.250000   44.129547   16.407841  1 Cwid
    5.250000   42.838001   17.153547  1 Cwid
    5.250000   46.712482   14.916560  1 Cwid
    5.250000   46.712482   16.407841  1 Cwid
    5.250000   45.421017   17.153547  1 Cwid
    5.250000   48.004025   17.153547  1 Cwid
    5.250000   37.671982   18.644827  1 Cwid
    5.250000   40.254993   18.644827  1 Cwid
    5.250000   38.963524   19.390402  1 Cwid
    5.250000   38.963524   20.881681  1 Cwid
    5.250000   37.671982   21.627388  1 Cwid
    5.250000   40.254993   21.627388  1 Cwid
    5.250000   42.838001   18.644827  1 Cwid
    5.250000   41.546535   19.390402  1 Cwid
    5.250000   44.129547   19.390402  1 Cwid
    5.250000   41.546535   20.881681  1 Cwid
    5.250000   44.129547   20.881681  1 Cwid
    5.250000   42.838001   21.627388  1 Cwid
    5.250000   45.421017   18.644827  1 Cwid
    5.250000   48.004025   18.644827  1 Cwid
    5.250000   46.712482   19.390402  1 Cwid
    5.250000   46.712482   20.881681  1 Cwid
    5.250000   45.421017   21.627388  1 Cwid
    5.250000   48.004025   21.627388  1 Cwid
    5.250000   37.671982  112.596428  1 Cwid
    5.250000   40.254993  112.596428  1 Cwid
    5.250000   38.963524  113.341988  1 Cwid
    5.250000   38.963524  114.833275  1 Cwid
    5.250000   42.838001  112.596428  1 Cwid
    5.250000   41.546535  113.341988  1 Cwid
    5.250000   44.129547  113.341988  1 Cwid
    5.250000   41.546535  114.833275  1 Cwid
    5.250000   44.129547  114.833275  1 Cwid
    5.250000   45.421017  112.596428  1 Cwid
    5.250000   48.004025  112.596428  1 Cwid
    5.250000   46.712482  113.341988  1 Cwid
    5.250000   46.712482  114.833275  1 Cwid
    5.250000   37.671982  115.578979  1 Cwid
    5.250000   40.254993  115.578979  1 Cwid
    5.250000   37.671982  117.070259  1 Cwid
    5.250000   40.254993  117.070259  1 Cwid
    5.250000   38.963524  117.815964  1 Cwid
    5.250000   42.838001  115.578979  1 Cwid
    5.250000   42.838001  117.070259  1 Cwid
    5.250000   41.546535  117.815964  1 Cwid
    5.250000   44.129547  117.815964  1 Cwid
    5.250000   45.421017  115.578979  1 Cwid
    5.250000   48.004025  115.578979  1 Cwid
    5.250000   45.421017  117.070259  1 Cwid
    5.250000   48.004025  117.070259  1 Cwid
    5.250000   46.712482  117.815964  1 Cwid
    5.250000   38.963524  119.307251  1 Cwid
    5.250000   37.671982  120.052818  1 Cwid
    5.250000   40.254993  120.052818  1 Cwid
    5.250000   37.671982  121.544106  1 Cwid
    5.250000   40.254993  121.544106  1 Cwid
    5.250000   38.963524  122.289810  1 Cwid
    5.250000   41.546535  119.307251  1 Cwid
    5.250000   44.129547  119.307251  1 Cwid
    5.250000   42.838001  120.052818  1 Cwid
    5.250000   42.838001  121.544106  1 Cwid
    5.250000   41.546535  122.289810  1 Cwid
    5.250000   44.129547  122.289810  1 Cwid
    5.250000   46.712482  119.307251  1 Cwid
    5.250000   45.421017  120.052818  1 Cwid
    5.250000   48.004025  120.052818  1 Cwid
    5.250000   45.421017  121.544106  1 Cwid
    5.250000   48.004025  121.544106  1 Cwid
    5.250000   46.712482  122.289810  1 Cwid
    5.250000   38.963524  123.781090  1 Cwid
    5.250000   37.671982  124.526794  1 Cwid
    5.250000   40.254993  124.526794  1 Cwid
    5.250000   37.671982  126.018082  1 Cwid
    5.250000   40.254993  126.018082  1 Cwid
    5.250000   41.546535  123.781090  1 Cwid
    5.250000   44.129547  123.781090  1 Cwid
    5.250000   42.838001  124.526794  1 Cwid
    5.250000   42.838001  126.018082  1 Cwid
    5.250000   46.712482  123.781090  1 Cwid
    5.250000   45.421017  124.526794  1 Cwid
    5.250000   48.004025  124.526794  1 Cwid
    5.250000   45.421017  126.018082  1 Cwid
    5.250000   48.004025  126.018082  1 Cwid
    5.250000   38.963524  126.763657  1 Cwid
    5.250000   38.963524  128.254929  1 Cwid
    5.250000   37.671982  129.000641  1 Cwid
    5.250000   40.254993  129.000641  1 Cwid
    5.250000   41.546535  126.763657  1 Cwid
    5.250000   44.129547  126.763657  1 Cwid
    5.250000   41.546535  128.254929  1 Cwid
    5.250000   44.129547  128.254929  1 Cwid
    5.250000   42.838001  129.000641  1 Cwid
    5.250000   46.712482  126.763657  1 Cwid
    5.250000   46.712482  128.254929  1 Cwid
    5.250000   45.421017  129.000641  1 Cwid
    5.250000   48.004025  129.000641  1 Cwid
    5.250000   37.671982  130.491913  1 Cwid
    5.250000   40.254993  130.491913  1 Cwid
    5.250000   38.963524  131.237625  1 Cwid
    5.250000   38.963524  132.728897  1 Cwid
    5.250000   37.671982  133.474487  1 Cwid
    5.250000   40.254993  133.474487  1 Cwid
    5.250000   42.838001  130.491913  1 Cwid
    5.250000   41.546535  131.237625  1 Cwid
    5.250000   44.129547  131.237625  1 Cwid
    5.250000   41.546535  132.728897  1 Cwid
    5.250000   44.129547  132.728897  1 Cwid
    5.250000   42.838001  133.474487  1 Cwid
    5.250000   45.421017  130.491913  1 Cwid
    5.250000   48.004025  130.491913  1 Cwid
    5.250000   46.712482  131.237625  1 Cwid
    5.250000   46.712482  132.728897  1 Cwid
    5.250000   45.421017  133.474487  1 Cwid
    5.250000   48.004025  133.474487  1 Cwid
    5.250000   50.587036    0.749252  1 Cwid
    5.250000   49.295490    1.494904  1 Cwid
    5.250000   51.878502    1.494904  1 Cwid
    5.250000   49.295490    2.986198  1 Cwid
    5.250000   51.878502    2.986198  1 Cwid
    5.250000   53.169971    0.749252  1 Cwid
    5.250000   55.752987    0.749252  1 Cwid
    5.250000   54.461514    1.494904  1 Cwid
    5.250000   57.044525    1.494904  1 Cwid
    5.250000   54.461514    2.986198  1 Cwid
    5.250000   57.044525    2.986198  1 Cwid
    5.250000   58.335991    0.749252  1 Cwid
    5.250000   60.919003    0.749252  1 Cwid
    5.250000   59.627533    1.494904  1 Cwid
    5.250000   59.627533    2.986198  1 Cwid
    5.250000   50.587036    3.731838  1 Cwid
    5.250000   50.587036    5.223132  1 Cwid
    5.250000   49.295490    5.968785  1 Cwid
    5.250000   51.878502    5.968785  1 Cwid
    5.250000   53.169971    3.731838  1 Cwid
    5.250000   55.752987    3.731838  1 Cwid
    5.250000   53.169971    5.223132  1 Cwid
    5.250000   55.752987    5.223132  1 Cwid
    5.250000   54.461514    5.968785  1 Cwid
    5.250000   57.044525    5.968785  1 Cwid
    5.250000   58.335991    3.731838  1 Cwid
    5.250000   60.919003    3.731838  1 Cwid
    5.250000   58.335991    5.223132  1 Cwid
    5.250000   60.919003    5.223132  1 Cwid
    5.250000   59.627533    5.968785  1 Cwid
    5.250000   49.295490    7.460078  1 Cwid
    5.250000   51.878502    7.460078  1 Cwid
    5.250000   50.587036    8.205732  1 Cwid
    5.250000   50.587036    9.697025  1 Cwid
    5.250000   49.295490   10.442666  1 Cwid
    5.250000   51.878502   10.442666  1 Cwid
    5.250000   54.461514    7.460078  1 Cwid
    5.250000   57.044525    7.460078  1 Cwid
    5.250000   53.169971    8.205732  1 Cwid
    5.250000   55.752987    8.205732  1 Cwid
    5.250000   53.169971    9.697025  1 Cwid
    5.250000   55.752987    9.697025  1 Cwid
    5.250000   54.461514   10.442666  1 Cwid
    5.250000   57.044525   10.442666  1 Cwid
    5.250000   59.627533    7.460078  1 Cwid
    5.250000   58.335991    8.205732  1 Cwid
    5.250000   60.919003    8.205732  1 Cwid
    5.250000   58.335991    9.697025  1 Cwid
    5.250000   60.919003    9.697025  1 Cwid
    5.250000   59.627533   10.442666  1 Cwid
    5.250000   49.295490   11.933959  1 Cwid
    5.250000   51.878502   11.933959  1 Cwid
    5.250000   50.587036   12.679612  1 Cwid
    5.250000   50.587036   14.170853  1 Cwid
    5.250000   54.461514   11.933959  1 Cwid
    5.250000   57.044525   11.933959  1 Cwid
    5.250000   53.169971   12.679612  1 Cwid
    5.250000   55.752987   12.679612  1 Cwid
    5.250000   53.169971   14.170853  1 Cwid
    5.250000   55.752987   14.170853  1 Cwid
    5.250000   59.627533   11.933959  1 Cwid
    5.250000   58.335991   12.679612  1 Cwid
    5.250000   60.919003   12.679612  1 Cwid
    5.250000   58.335991   14.170853  1 Cwid
    5.250000   60.919003   14.170853  1 Cwid