%block AtomicCoordinatesAndAtomicSpecies
    5.050000   11.390902    0.720709  1 Cwid
    5.050000   10.148631    1.437955  1 Cwid
    5.050000   10.148631    2.872438  1 Cwid
    5.050000   11.390902    3.589673  1 Cwid
    5.050000   11.390902    5.024156  1 Cwid
    5.050000   10.148631    5.741403  1 Cwid
    5.050000   10.148631    7.175885  1 Cwid
    5.050000   11.390902    7.893133  1 Cwid
    5.050000   11.390902    9.327616  1 Cwid
    5.050000   10.148631   10.044850  1 Cwid
    5.050000   10.148631   11.479333  1 Cwid
    5.050000   11.390902   12.196580  1 Cwid
    5.050000   11.390902   13.631011  1 Cwid
    5.050000   10.148631   14.348310  1 Cwid
    5.050000   10.148631   15.782781  1 Cwid
    5.050000   11.390902   16.500078  1 Cwid
    5.050000   11.390902   17.934549  1 Cwid
    5.050000   10.148631   18.651720  1 Cwid
    5.050000   10.148631   20.086189  1 Cwid
    5.050000   11.390902   20.803488  1 Cwid
    5.050000   11.390902  108.307045  1 Cwid
    5.050000   10.148631  109.024200  1 Cwid
    5.050000   10.148631  110.458679  1 Cwid
    5.050000   11.390902  111.175980  1 Cwid
    5.050000   11.390902  112.610443  1 Cwid
    5.050000   10.148631  113.327744  1 Cwid
    5.050000   10.148631  114.762222  1 Cwid
    5.050000   11.390902  115.479378  1 Cwid
    5.050000   11.390902  116.913857  1 Cwid
    5.050000   10.148631  117.631157  1 Cwid
    5.050000   10.148631  119.065620  1 Cwid
    5.050000   11.390902  119.782921  1 Cwid
    5.050000   11.390902  121.217400  1 Cwid
    5.050000   10.148631  121.934570  1 Cwid
    5.050000   10.148631  123.369034  1 Cwid
    5.050000   11.390902  124.086334  1 Cwid
    5.050000   11.390902  125.520798  1 Cwid
    5.050000   10.148631  126.238098  1 Cwid
    5.050000   10.148631  127.672569  1 Cwid
    5.050000   11.390902  128.389740  1 Cwid
    5.050000   13.875512    0.720709  1 Cwid
    5.050000   12.633171    1.437955  1 Cwid
    5.050000   15.117781    1.437955  1 Cwid
    5.050000   12.633171    2.872438  1 Cwid
    5.050000   15.117781    2.872438  1 Cwid
    5.050000   16.360121    0.720709  1 Cwid
    5.050000   18.844730    0.720709  1 Cwid
    5.050000   17.602390    1.437955  1 Cwid
    5.050000   17.602390    2.872438  1 Cwid
    5.050000   21.329271    0.720709  1 Cwid
    5.050000   20.087002    1.437955  1 Cwid
    5.050000   22.571609    1.437955  1 Cwid
    5.050000   20.087002    2.872438  1 Cwid
    5.050000   22.571609    2.872438  1 Cwid
    5.050000   13.875512    3.589673  1 Cwid
    5.050000   13.875512    5.024156  1 Cwid
    5.050000   12.633171    5.741403  1 Cwid
    5.050000   15.117781    5.741403  1 Cwid
    5.050000   16.360121    3.589673  1 Cwid
    5.050000   18.844730    3.589673  1 Cwid
    5.050000   16.360121    5.024156  1 Cwid
    5.050000   18.844730    5.024156  1 Cwid
    5.050000   17.602390    5.741403  1 Cwid
    5.050000   21.329271    3.589673  1 Cwid
    5.050000   21.329271    5.024156  1 Cwid
    5.050000   20.087002    5.741403  1 Cwid
    5.050000   22.571609    5.741403  1 Cwid
    5.050000   12.633171    7.175885  1 Cwid
    5.050000   15.117781    7.175885  1 Cwid
    5.050000   13.875512    7.893133  1 Cwid
    5.050000   13.875512    9.327616  1 Cwid
    5.050000   12.633171   10.044850  1 Cwid
    5.050000   15.117781   10.044850  1 Cwid
    5.050000   17.602390    7.175885  1 Cwid
    5.050000   16.360121    7.893133  1 Cwid
    5.050000   18.844730    7.893133  1 Cwid
    5.050000   16.360121    9.327616  1 Cwid
    5.050000   18.844730    9.327616  1 Cwid
    5.050000   17.602390   10.044850  1 Cwid
    5.050000   20.087002    7.175885  1 Cwid
    5.050000   22.571609    7.175885  1 Cwid
    5.050000   21.329271    7.893133  1 Cwid
    5.050000   21.329271    9.327616  1 Cwid
    5.050000   20.087002   10.044850  1 Cwid
    5.050000   22.571609   10.044850  1 Cwid
    5.050000   12.633171   11.479333  1 Cwid
    5.050000   15.117781   11.479333  1 Cwid
    5.050000   13.875512   12.196580  1 Cwid
    5.050000   13.875512   13.631011  1 Cwid
    5.050000   17.602390   11.479333  1 Cwid
    5.050000   16.360121   12.196580  1 Cwid
    5.050000   18.844730   12.196580  1 Cwid
    5.050000   16.360121   13.631011  1 Cwid
    5.050000   18.844730   13.631011  1 Cwid
    5.050000   20.087002   11.479333  1 Cwid
    5.050000   22.571609   11.479333  1 Cwid
    5.050000   21.329271   12.196580  1 Cwid
    5.050000   21.329271   13.631011  1 Cwid
    5.050000   12.633171   14.348310  1 Cwid
    5.050000   15.117781   14.348310  1 Cwid
    5.050000   12.633171   15.782781  1 Cwid
    5.050000   15.117781   15.782781  1 Cwid
    5.050000   13.875512   16.500078  1 Cwid
    5.050000   17.602390   14.348310  1 Cwid
    5.050000   17.602390   15.782781  1 Cwid
    5.050000   16.360121   16.500078  1 Cwid
    5.050000   18.844730   16.500078  1 Cwid
    5.050000   20.087002   14.348310  1 Cwid
    5.050000   22.571609   14.348310  1 Cwid
    5.050000   20.087002   15.782781  1 Cwid
    5.050000   22.571609   15.782781  1 Cwid
    5.050000   21.329271   16.500078  1 Cwid
    5.050000   13.875512   17.934549  1 Cwid
    5.050000   12.633171   18.651720  1 Cwid
    5.050000   15.117781   18.651720  1 Cwid
    5.050000   12.633171   20.086189  1 Cwid
    5.050000   15.117781   20.086189  1 Cwid
    5.050000   13.875512   20.803488  1 Cwid
    5.050000   16.360121   17.934549  1 Cwid
    5.050000   18.844730   17.934549  1 Cwid
    5.050000   17.602390   18.651720  1 Cwid
    5.050000   17.602390   20.086189  1 Cwid
    5.050000   16.360121   20.803488  1 Cwid
    5.050000   18.844730   20.803488  1 Cwid
    5.050000   21.329271   17.934549  1 Cwid
    5.050000   20.087002   18.651720  1 Cwid
    5.050000   22.571609   18.651720  1 Cwid
    5.050000   20.087002   20.086189  1 Cwid
    5.050000   22.571609   20.086189  1 Cwid
    5.050000   21.329271   20.803488  1 Cwid
    5.050000   13.875512  108.307045  1 Cwid
    5.050000   12.633171  109.024200  1 Cwid
    5.050000   15.117781  109.024200  1 Cwid
    5.050000   12.633171  110.458679  1 Cwid
    5.050000   15.117781  110.458679  1 Cwid
    5.050000   16.360121  108.307045  1 Cwid
    5.050000   18.844730  108.307045  1 Cwid
    5.050000   17.602390  109.024200  1 Cwid
    5.050000   17.602390  110.458679  1 Cwid
    5.050000   21.329271  108.307045  1 Cwid
    5.050000   20.087002  109.024200  1 Cwid
    5.050000   22.571609  109.024200  1 Cwid
    5.050000   20.087002  110.458679  1 Cwid
    5.050000   22.571609  110.458679  1 Cwid
    5.050000   13.875512  111.175980  1 Cwid
    5.050000   13.875512  112.610443  1 Cwid
    5.050000   12.633171  113.327744  1 Cwid
    5.050000   15.117781  113.327744  1 Cwid
    5.050000   16.360121  111.175980  1 Cwid
    5.050000   18.844730  111.175980  1 Cwid
    5.050000   16.360121  112.610443  1 Cwid
    5.050000   18.844730  112.610443  1 Cwid
    5.050000   17.602390  113.327744  1 Cwid
    5.050000   21.329271  111.175980  1 Cwid
    5.050000   21.329271  112.610443  1 Cwid
    5.050000   20.087002  113.327744  1 Cwid
    5.050000   22.571609  113.327744  1 Cwid
    5.050000   12.633171  114.762222  1 Cwid
    5.050000   15.117781  114.762222  1 Cwid
    5.050000   13.875512  115.479378  1 Cwid
    5.050000   13.875512  116.913857  1 Cwid
    5.050000   12.633171  117.631157  1 Cwid
    5.050000   15.117781  117.631157  1 Cwid
    5.050000   17.602390  114.762222  1 Cwid
    5.050000   16.360121  115.479378  1 Cwid
    5.050000   18.844730  115.479378  1 Cwid
    5.050000   16.360121  116.913857  1 Cwid
    5.050000   18.844730  116.913857  1 Cwid
    5.050000   17.602390  117.631157  1 Cwid
    5.050000   20.087002  114.762222  1 Cwid
    5.050000   22.571609  114.762222  1 Cwid
    5.050000   21.329271  115.479378  1 Cwid
    5.050000   21.329271  116.913857  1 Cwid
    5.050000   20.087002  117.631157  1 Cwid
    5.050000   22.571609  117.631157  1 Cwid
    5.050000   12.633171  119.065620  1 Cwid
    5.050000   15.117781  119.065620  1 Cwid
    5.050000   13.875512  119.782921  1 Cwid
    5.050000   13.875512  121.217400  1 Cwid
    5.050000   17.602390  119.065620  1 Cwid
    5.050000   16.360121  119.782921  1 Cwid
    5.050000   18.844730  119.782921  1 Cwid
    5.050000   16.360121  121.217400  1 Cwid
    5.050000   18.844730  121.217400  1 Cwid
    5.050000   20.087002  119.065620  1 Cwid
    5.050000   22.571609  119.065620  1 Cwid
    5.050000   21.329271  119.782921  1 Cwid
    5.050000   21.329271  121.217400  1 Cwid
    5.050000   12.633171  121.934570  1 Cwid
    5.050000   15.117781  121.934570  1 Cwid
    5.050000   12.633171  123.369034  1 Cwid
    5.050000   15.117781  123.369034  1 Cwid
    5.050000   13.875512  124.086334  1 Cwid
    5.050000   17.602390  121.934570  1 Cwid
    5.050000   17.602390  123.369034  1 Cwid
    5.050000   16.360121  124.086334  1 Cwid
    5.050000   18.844730  124.086334  1 Cwid
    5.050000   20.087002  121.934570  1 Cwid
    5.050000   22.571609  121.934570  1 Cwid
    5.050000   20.087002  123.369034  1 Cwid
    5.050000   22.571609  123.369034  1 Cwid
    5.050000   21.329271  124.086334  1 Cwid
    5.050000   13.875512  125.520798  1 Cwid
    5.050000   12.633171  126.238098  1 Cwid
    5.050000   15.117781  126.238098  1 Cwid
    5.050000   12.633171  127.672569  1 Cwid
    5.050000   15.117781  127.672569  1 Cwid
    5.050000   13.875512  128.389740  1 Cwid
    5.050000   16.360121  125.520798  1 Cwid
    5.050000   18.844730  125.520798  1 Cwid
    5.050000   17.602390  126.238098  1 Cwid
    5.050000   17.602390  127.672569  1 Cwid
    5.050000   16.360121  128.389740  1 Cwid
    5.050000   18.844730  128.389740  1 Cwid
    5.050000   21.329271  125.520798  1 Cwid
    5.050000   20.087002  126.238098  1 Cwid
    5.050000   22.571609  126.238098  1 Cwid
    5.050000   20.087002  127.672569  1 Cwid
    5.050000   22.571609  127.672569  1 Cwid
    5.050000   21.329271  128.389740  1 Cwid
    5.050000   23.813881    0.720709  1 Cwid
    5.050000   26.298492    0.720709  1 Cwid
    5.050000   25.056221    1.437955  1 Cwid
    5.050000   25.056221    2.872438  1 Cwid
    5.050000   28.783100    0.720709  1 Cwid
    5.050000   31.267714    0.720709  1 Cwid
    5.050000   27.540762    1.437955  1 Cwid
    5.050000   30.025372    1.437955  1 Cwid
    5.050000   27.540762    2.872438  1 Cwid
    5.050000   30.025372    2.872438  1 Cwid
    5.050000   33.752323    0.720709  1 Cwid
    5.050000   32.509979    1.437955  1 Cwid
    5.050000   34.994591    1.437955  1 Cwid
    5.050000   32.509979    2.872438  1 Cwid
    5.050000   34.994591    2.872438  1 Cwid
    5.050000   23.813881    3.589673  1 Cwid
    5.050000   26.298492    3.589673  1 Cwid
    5.050000   23.813881    5.024156  1 Cwid
    5.050000   26.298492    5.024156  1 Cwid
    5.050000   25.056221    5.741403  1 Cwid
    5.050000   28.783100    3.589673  1 Cwid
    5.050000   31.267714    3.589673  1 Cwid
    5.050000   28.783100    5.024156  1 Cwid
    5.050000   31.267714    5.024156  1 Cwid
    5.050000   27.540762    5.741403  1 Cwid
    5.050000   30.025372    5.741403  1 Cwid
    5.050000   33.752323    3.589673  1 Cwid
    5.050000   33.752323    5.024156  1 Cwid
    5.050000   32.509979    5.741403  1 Cwid
    5.050000   34.994591    5.741403  1 Cwid
    5.050000   25.056221    7.175885  1 Cwid
    5.050000   23.813881    7.893133  1 Cwid
    5.050000   26.298492    7.893133  1 Cwid
    5.050000   23.813881    9.327616  1 Cwid
    5.050000   26.298492    9.327616  1 Cwid
    5.050000   25.056221   10.044850  1 Cwid
    5.050000   27.540762    7.175885  1 Cwid
    5.050000   30.025372    7.175885  1 Cwid
    5.050000   28.783100    7.893133  1 Cwid
    5.050000   31.267714    7.893133  1 Cwid
    5.050000   28.783100    9.327616  1 Cwid
    5.050000   31.267714    9.327616  1 Cwid
    5.050000   27.540762   10.044850  1 Cwid
    5.050000   30.025372   10.044850  1 Cwid
    5.050000   32.509979    7.175885  1 Cwid
    5.050000   34.994591    7.175885  1 Cwid
    5.050000   33.752323    7.893133  1 Cwid
    5.050000   33.752323    9.327616  1 Cwid
    5.050000   32.509979   10.044850  1 Cwid
    5.050000   34.994591   10.044850  1 Cwid
    5.050000   25.056221   11.479333  1 Cwid
    5.050000   23.813881   12.196580  1 Cwid
    5.050000   26.298492   12.196580  1 Cwid
    5.050000   23.813881   13.631011  1 Cwid
    5.050000   26.298492   13.631011  1 Cwid
    5.050000   27.540762   11.479333  1 Cwid
    5.050000   30.025372   11.479333  1 Cwid
    5.050000   28.783100   12.196580  1 Cwid
    5.050000   31.267714   12.196580  1 Cwid
    5.050000   28.783100   13.631011  1 Cwid
    5.050000   31.267714   13.631011  1 Cwid
    5.050000   32.509979   11.479333  1 Cwid
    5.050000   34.994591   11.479333  1 Cwid
    5.050000   33.752323   12.196580  1 Cwid
    5.050000   33.752323   13.631011  1 Cwid
    5.050000   25.056221   14.348310  1 Cwid
    5.050000   25.056221   15.782781  1 Cwid
    5.050000   23.813881   16.500078  1 Cwid
    5.050000   26.298492   16.500078  1 Cwid
    5.050000   27.540762   14.348310  1 Cwid
    5.050000   30.025372   14.348310  1 Cwid
    5.050000   27.540762   15.782781  1 Cwid
    5.050000   30.025372   15.782781  1 Cwid
    5.050000   28.783100   16.500078  1 Cwid
    5.050000   31.267714   16.500078  1 Cwid
    5.050000   32.509979   14.348310  1 Cwid
    5.050000   34.994591   14.348310  1 Cwid
    5.050000   32.509979   15.782781  1 Cwid
    5.050000   34.994591   15.782781  1 Cwid
    5.050000   33.752323   16.500078  1 Cwid
    5.050000   23.813881   17.934549  1 Cwid
    5.050000   26.298492   17.934549  1 Cwid
    5.050000   25.056221   18.651720  1 Cwid
    5.050000   25.056221   20.086189  1 Cwid
    5.050000   23.813881   20.803488  1 Cwid
    5.050000   26.298492   20.803488  1 Cwid
    5.050000   28.783100   17.934549  1 Cwid
    5.050000   31.267714   17.934549  1 Cwid
    5.050000   27.540762   18.651720  1 Cwid
    5.050000   30.025372   18.651720  1 Cwid
    5.050000   27.540762   20.086189  1 Cwid
    5.050000   30.025372   20.086189  1 Cwid
    5.050000   28.783100   20.803488  1 Cwid
    5.050000   31.267714   20.803488  1 Cwid
    5.050000   33.752323   17.934549  1 Cwid
    5.050000   32.509979   18.651720  1 Cwid
    5.050000   34.994591   18.651720  1 Cwid
    5.050000   32.509979   20.086189  1 Cwid
    5.050000   34.994591   20.086189  1 Cwid
    5.050000   33.752323   20.803488  1 Cwid
    5.050000   23.813881  108.307045  1 Cwid
    5.050000   26.298492  108.307045  1 Cwid
    5.050000   25.056221  109.024200  1 Cwid
    5.050000   25.056221  110.458679  1 Cwid
    5.050000   28.783100  108.307045  1 Cwid
    5.050000   31.267714  108.307045  1 Cwid
    5.050000   27.540762  109.024200  1 Cwid
    5.050000   30.025372  109.024200  1 Cwid
    5.050000   27.540762  110.458679  1 Cwid
    5.050000   30.025372  110.458679  1 Cwid
    5.050000   33.752323  108.307045  1 Cwid
    5.050000   32.509979  109.024200  1 Cwid
    5.050000   34.994591  109.024200  1 Cwid
    5.050000   32.509979  110.458679  1 Cwid
    5.050000   34.994591  110.458679  1 Cwid
    5.050000   23.813881  111.175980  1 Cwid
    5.050000   26.298492  111.175980  1 Cwid
    5.050000   23.813881  112.610443  1 Cwid
    5.050000   26.298492  112.610443  1 Cwid
    5.050000   25.056221  113.327744  1 Cwid
    5.050000   28.783100  111.175980  1 Cwid
    5.050000   31.267714  111.175980  1 Cwid
    5.050000   28.783100  112.610443  1 Cwid
    5.050000   31.267714  112.610443  1 Cwid
    5.050000   27.540762  113.327744  1 Cwid
    5.050000   30.025372  113.327744  1 Cwid
    5.050000   33.752323  111.175980  1 Cwid
    5.050000   33.752323  112.610443  1 Cwid
    5.050000   32.509979  113.327744  1 Cwid
    5.050000   34.994591  113.327744  1 Cwid
    5.050000   25.056221  114.762222  1 Cwid
    5.050000   23.813881  115.479378  1 Cwid
    5.050000   26.298492  115.479378  1 Cwid
    5.050000   23.813881  116.913857  1 Cwid
    5.050000   26.298492  116.913857  1 Cwid
    5.050000   25.056221  117.631157  1 Cwid
    5.050000   27.540762  114.762222  1 Cwid
    5.050000   30.025372  114.762222  1 Cwid
    5.050000   28.783100  115.479378  1 Cwid
    5.050000   31.267714  115.479378  1 Cwid
    5.050000   28.783100  116.913857  1 Cwid
    5.050000   31.267714  116.913857  1 Cwid
    5.050000   27.540762  117.631157  1 Cwid
    5.050000   30.025372  117.631157  1 Cwid
    5.050000   32.509979  114.762222  1 Cwid
    5.050000   34.994591  114.762222  1 Cwid
    5.050000   33.752323  115.479378  1 Cwid
    5.050000   33.752323  116.913857  1 Cwid
    5.050000   32.509979  117.631157  1 Cwid
    5.050000   34.994591  117.631157  1 Cwid
    5.050000   25.056221  119.065620  1 Cwid
    5.050000   23.813881  119.782921  1 Cwid
    5.050000   26.298492  119.782921  1 Cwid
    5.050000   23.813881  121.217400  1 Cwid
    5.050000   26.298492  121.217400  1 Cwid
    5.050000   27.540762  119.065620  1 Cwid
    5.050000   30.025372  119.065620  1 Cwid
    5.050000   28.783100  119.782921  1 Cwid
    5.050000   31.267714  119.782921  1 Cwid
    5.050000   28.783100  121.217400  1 Cwid
    5.050000   31.267714  121.217400  1 Cwid
    5.050000   32.509979  119.065620  1 Cwid
    5.050000   34.994591  119.065620  1 Cwid
    5.050000   33.752323  119.782921  1 Cwid
    5.050000   33.752323  121.217400  1 Cwid
    5.050000   25.056221  121.934570  1 Cwid
    5.050000   25.056221  123.369034  1 Cwid
    5.050000   23.813881  124.086334  1 Cwid
    5.050000   26.298492  124.086334  1 Cwid
    5.050000   27.540762  121.934570  1 Cwid
    5.050000   30.025372  121.934570  1 Cwid
    5.050000   27.540762  123.369034  1 Cwid
    5.050000   30.025372  123.369034  1 Cwid
    5.050000   28.783100  124.086334  1 Cwid
    5.050000   31.267714  124.086334  1 Cwid
    5.050000   32.509979  121.934570  1 Cwid
    5.050000   34.994591  121.934570  1 Cwid
    5.050000   32.509979  123.369034  1 Cwid
    5.050000   34.994591  123.369034  1 Cwid
    5.050000   33.752323  124.086334  1 Cwid
    5.050000   23.813881  125.520798  1 Cwid
    5.050000   26.298492  125.520798  1 Cwid
    5.050000   25.056221  126.238098  1 Cwid
    5.050000   25.056221  127.672569  1 Cwid
    5.050000   23.813881  128.389740  1 Cwid
    5.050000   26.298492  128.389740  1 Cwid
    5.050000   28.783100  125.520798  1 Cwid
    5.050000   31.267714  125.520798  1 Cwid
    5.050000   27.540762  126.238098  1 Cwid
    5.050000   30.025372  126.238098  1 Cwid
    5.050000   27.540762  127.672569  1 Cwid
    5.050000   30.025372  127.672569  1 Cwid
    5.050000   28.783100  128.389740  1 Cwid
    5.050000   31.267714  128.389740  1 Cwid
    5.050000   33.752323  125.520798  1 Cwid
    5.050000   32.509979  126.238098  1 Cwid
    5.050000   34.994591  126.238098  1 Cwid
    5.050000   32.509979  127.672569  1 Cwid
    5.050000   34.994591  127.672569  1 Cwid
    5.050000   33.752323  128.389740  1 Cwid
    5.050000   36.236858    0.720709  1 Cwid
    5.050000   38.721470    0.720709  1 Cwid
    5.050000   37.479202    1.437955  1 Cwid
    5.050000   37.479202    2.872438  1 Cwid
    5.050000   41.206081    0.720709  1 Cwid
    5.050000   39.963810    1.437955  1 Cwid
    5.050000   42.448421    1.437955  1 Cwid
    5.050000   39.963810    2.872438  1 Cwid
    5.050000   42.448421    2.872438  1 Cwid
    5.050000   43.690693    0.720709  1 Cwid
    5.050000   46.175301    0.720709  1 Cwid
    5.050000   44.932961    1.437955  1 Cwid
    5.050000   44.932961    2.872438  1 Cwid
    5.050000   36.236858    3.589673  1 Cwid
    5.050000   38.721470    3.589673  1 Cwid
    5.050000   36.236858    5.024156  1 Cwid
    5.050000   38.721470    5.024156  1 Cwid
    5.050000   37.479202    5.741403  1 Cwid
    5.050000   41.206081    3.589673  1 Cwid
    5.050000   41.206081    5.024156  1 Cwid
    5.050000   39.963810    5.741403  1 Cwid
    5.050000   42.448421    5.741403  1 Cwid
    5.050000   43.690693    3.589673  1 Cwid
    5.050000   46.175301    3.589673  1 Cwid
    5.050000   43.690693    5.024156  1 Cwid
    5.050000   46.175301    5.024156  1 Cwid
    5.050000   44.932961    5.741403  1 Cwid
    5.050000   37.479202    7.175885  1 Cwid
    5.050000   36.236858    7.893133  1 Cwid
    5.050000   38.721470    7.893133  1 Cwid
    5.050000   36.236858    9.327616  1 Cwid
    5.050000   38.721470    9.327616  1 Cwid
    5.050000   37.479202   10.044850  1 Cwid
    5.050000   39.963810    7.175885  1 Cwid
    5.050000   42.448421    7.175885  1 Cwid
    5.050000   41.206081    7.893133  1 Cwid
    5.050000   41.206081    9.327616  1 Cwid
    5.050000   39.963810   10.044850  1 Cwid
    5.050000   42.448421   10.044850  1 Cwid
    5.050000   44.932961    7.175885  1 Cwid
    5.050000   43.690693    7.893133  1 Cwid
    5.050000   46.175301    7.893133  1 Cwid
    5.050000   43.690693    9.327616  1 Cwid
    5.050000   46.175301    9.327616  1 Cwid
    5.050000   44.932961   10.044850  1 Cwid
    5.050000   37.479202   11.479333  1 Cwid
    5.050000   36.236858   12.196580  1 Cwid
    5.050000   38.721470   12.196580  1 Cwid
    5.050000   36.236858   13.631011  1 Cwid
    5.050000   38.721470   13.631011  1 Cwid
    5.050000   39.963810   11.479333  1 Cwid
    5.050000   42.448421   11.479333  1 Cwid
    5.050000   41.206081   12.196580  1 Cwid
    5.050000   41.206081   13.631011  1 Cwid
    5.050000   44.932961   11.479333  1 Cwid
    5.050000   43.690693   12.196580  1 Cwid
    5.050000   46.175301   12.196580  1 Cwid
    5.050000   43.690693   13.631011  1 Cwid
    5.050000   46.175301   13.631011  1 Cwid
    5.050000   37.479202   14.348310  1 Cwid
    5.050000   37.479202   15.782781  1 Cwid
    5.050000   36.236858   16.500078  1 Cwid
    5.050000   38.721470   16.500078  1 Cwid
    5.050000   39.963810   14.348310  1 Cwid
    5.050000   42.448421   14.348310  1 Cwid
    5.050000   39.963810   15.782781  1 Cwid
    5.050000   42.448421   15.782781  1 Cwid
    5.050000   41.206081   16.500078  1 Cwid
    5.050000   44.932961   14.348310  1 Cwid
    5.050000   44.932961   15.782781  1 Cwid
    5.050000   43.690693   16.500078  1 Cwid
    5.050000   46.175301   16.500078  1 Cwid
    5.050000   36.236858   17.934549  1 Cwid
    5.050000   38.721470   17.934549  1 Cwid
    5.050000   37.479202   18.651720  1 Cwid
    5.050000   37.479202   20.086189  1 Cwid
    5.050000   36.236858   20.803488  1 Cwid
    5.050000   38.721470   20.803488  1 Cwid
    5.050000   41.206081   17.934549  1 Cwid
    5.050000   39.963810   18.651720  1 Cwid
    5.050000   42.448421   18.651720  1 Cwid
    5.050000   39.963810   20.086189  1 Cwid
    5.050000   42.448421   20.086189  1 Cwid
    5.050000   41.206081   20.803488  1 Cwid
    5.050000   43.690693   17.934549  1 Cwid
    5.050000   46.175301   17.934549  1 Cwid
    5.050000   44.932961   18.651720  1 Cwid
    5.050000   44.932961   20.086189  1 Cwid
    5.050000   43.690693   20.803488  1 Cwid
    5.050000   46.175301   20.803488  1 Cwid
    5.050000   36.236858  108.307045  1 Cwid
    5.050000   38.721470  108.307045  1 Cwid
    5.050000   37.479202  109.024200  1 Cwid
    5.050000   37.479202  110.458679  1 Cwid
    5.050000   41.206081  108.307045  1 Cwid
    5.050000   39.963810  109.024200  1 Cwid
    5.050000   42.448421  109.024200  1 Cwid
    5.050000   39.963810  110.458679  1 Cwid
    5.050000   42.448421  110.458679  1 Cwid
    5.050000   43.690693  108.307045  1 Cwid
    5.050000   46.175301  108.307045  1 Cwid
    5.050000   44.932961  109.024200  1 Cwid
    5.050000   44.932961  110.458679  1 Cwid
    5.050000   36.236858  111.175980  1 Cwid
    5.050000   38.721470  111.175980  1 Cwid
    5.050000   36.236858  112.610443  1 Cwid
    5.050000   38.721470  112.610443  1 Cwid
    5.050000   37.479202  113.327744  1 Cwid
    5.050000   41.206081  111.175980  1 Cwid
    5.050000   41.206081  112.610443  1 Cwid
    5.050000   39.963810  113.327744  1 Cwid
    5.050000   42.448421  113.327744  1 Cwid
    5.050000   43.690693  111.175980  1 Cwid
    5.050000   46.175301  111.175980  1 Cwid
    5.050000   43.690693  112.610443  1 Cwid
    5.050000   46.175301  112.610443  1 Cwid
    5.050000   44.932961  113.327744  1 Cwid
    5.050000   37.479202  114.762222  1 Cwid
    5.050000   36.236858  115.479378  1 Cwid
    5.050000   38.721470  115.479378  1 Cwid
    5.050000   36.236858  116.913857  1 Cwid
    5.050000   38.721470  116.913857  1 Cwid
    5.050000   37.479202  117.631157  1 Cwid
    5.050000   39.963810  114.762222  1 Cwid
    5.050000   42.448421  114.762222  1 Cwid
    5.050000   41.206081  115.479378  1 Cwid
    5.050000   41.206081  116.913857  1 Cwid
    5.050000   39.963810  117.631157  1 Cwid
    5.050000   42.448421  117.631157  1 Cwid
    5.050000   44.932961  114.762222  1 Cwid
    5.050000   43.690693  115.479378  1 Cwid
    5.050000   46.175301  115.479378  1 Cwid
    5.050000   43.690693  116.913857  1 Cwid
    5.050000   46.175301  116.913857  1 Cwid
    5.050000   44.932961  117.631157  1 Cwid
    5.050000   37.479202  119.065620  1 Cwid
    5.050000   36.236858  119.782921  1 Cwid
    5.050000   38.721470  119.782921  1 Cwid
    5.050000   36.236858  121.217400  1 Cwid
    5.050000   38.721470  121.217400  1 Cwid
    5.050000   39.963810  119.065620  1 Cwid
    5.050000   42.448421  119.065620  1 Cwid
    5.050000   41.206081  119.782921  1 Cwid
    5.050000   41.206081  121.217400  1 Cwid
    5.050000   44.932961  119.065620  1 Cwid
    5.050000   43.690693  119.782921  1 Cwid
    5.050000   46.175301  119.782921  1 Cwid
    5.050000   43.690693  121.217400  1 Cwid
    5.050000   46.175301  121.217400  1 Cwid
    5.050000   37.479202  121.934570  1 Cwid
    5.050000   37.479202  123.369034  1 Cwid
    5.050000   36.236858  124.086334  1 Cwid
    5.050000   38.721470  124.086334  1 Cwid
    5.050000   39.963810  121.934570  1 Cwid
    5.050000   42.448421  121.934570  1 Cwid
    5.050000   39.963810  123.369034  1 Cwid
    5.050000   42.448421  123.369034  1 Cwid
    5.050000   41.206081  124.086334  1 Cwid
    5.050000   44.932961  121.934570  1 Cwid
    5.050000   44.932961  123.369034  1 Cwid
    5.050000   43.690693  124.086334  1 Cwid
    5.050000   46.175301  124.086334  1 Cwid
    5.050000   36.236858  125.520798  1 Cwid
    5.050000   38.721470  125.520798  1 Cwid
    5.050000   37.479202  126.238098  1 Cwid
    5.050000   37.479202  127.672569  1 Cwid
    5.050000   36.236858  128.389740  1 Cwid
    5.050000   38.721470  128.389740  1 Cwid
    5.050000   41.206081  125.520798  1 Cwid
    5.050000   39.963810  126.238098  1 Cwid
    5.050000   42.448421  126.238098  1 Cwid
    5.050000   39.963810  127.672569  1 Cwid
    5.050000   42.448421  127.672569  1 Cwid
    5.050000   41.206081  128.389740  1 Cwid
    5.050000   43.690693  125.520798  1 Cwid
    5.050000   46.175301  125.520798  1 Cwid
    5.050000   44.932961  126.238098  1 Cwid
    5.050000   44.932961  127.672569  1 Cwid
    5.050000   43.690693  128.389740  1 Cwid
    5.050000   46.175301  128.389740  1 Cwid
    5.050000   48.659912    0.720709  1 Cwid
    5.050000   47.417568    1.437955  1 Cwid
    5.050000   49.902180    1.437955  1 Cwid
    5.050000   47.417568    2.872438  1 Cwid
    5.050000   49.902180    2.872438  1 Cwid
    5.050000   51.144451    0.720709  1 Cwid
    5.050000   53.629063    0.720709  1 Cwid
    5.050000   52.386791    1.437955  1 Cwid
    5.050000   54.871403    1.437955  1 Cwid
    5.050000   52.386791    2.872438  1 Cwid
    5.050000   54.871403    2.872438  1 Cwid
    5.050000   56.113670    0.720709  1 Cwid
    5.050000   58.598282    0.720709  1 Cwid
    5.050000   57.356010    1.437955  1 Cwid
    5.050000   57.356010    2.872438  1 Cwid
    5.050000   48.659912    3.589673  1 Cwid
    5.050000   48.659912    5.024156  1 Cwid
    5.050000   47.417568    5.741403  1 Cwid
    5.050000   49.902180    5.741403  1 Cwid
    5.050000   51.144451    3.589673  1 Cwid
    5.050000   53.629063    3.589673  1 Cwid
    5.050000   51.144451    5.024156  1 Cwid
    5.050000   53.629063    5.024156  1 Cwid
    5.050000   52.386791    5.741403  1 Cwid
    5.050000   54.871403    5.741403  1 Cwid
    5.050000   56.113670    3.589673  1 Cwid
    5.050000   58.598282    3.589673  1 Cwid
    5.050000   56.113670    5.024156  1 Cwid
    5.050000   58.598282    5.024156  1 Cwid
    5.050000   57.356010    5.741403  1 Cwid
    5.050000   47.417568    7.175885  1 Cwid
    5.050000   49.902180    7.175885  1 Cwid
    5.050000   48.659912    7.893133  1 Cwid
    5.050000   48.659912    9.327616  1 Cwid
    5.050000   47.417568   10.044850  1 Cwid
    5.050000   49.902180   10.044850  1 Cwid
    5.050000   52.386791    7.175885  1 Cwid
    5.050000   54.871403    7.175885  1 Cwid
    5.050000   51.144451    7.893133  1 Cwid
    5.050000   53.629063    7.893133  1 Cwid
    5.050000   51.144451    9.327616  1 Cwid
    5.050000   53.629063    9.327616  1 Cwid
    5.050000   52.386791   10.044850  1 Cwid
    5.050000   54.871403   10.044850  1 Cwid
    5.050000   57.356010    7.175885  1 Cwid
    5.050000   56.113670    7.893133  1 Cwid
    5.050000   58.598282    7.893133  1 Cwid
    5.050000   56.113670    9.327616  1 Cwid
    5.050000   58.598282    9.327616  1 Cwid
    5.050000   57.356010   10.044850  1 Cwid
    5.050000   47.417568   11.479333  1 Cwid
    5.050000   49.902180   11.479333  1 Cwid
    5.050000   48.659912   12.196580  1 Cwid
    5.050000   48.659912   13.631011  1 Cwid
    5.050000   52.386791   11.479333  1 Cwid
    5.050000   54.871403   11.479333  1 Cwid
    5.050000   51.144451   12.196580  1 Cwid
    5.050000   53.629063   12.196580  1 Cwid
    5.050000   51.144451   13.631011  1 Cwid
    5.050000   53.629063   13.631011  1 Cwid
    5.050000   57.356010   11.479333  1 Cwid
    5.050000   56.113670   12.196580  1 Cwid
    5.050000   58.598282   12.196580  1 Cwid
    5.050000   56.113670   13.631011  1 Cwid
    5.050000   58.598282   13.631011  1 Cwid