 %block AtomicCoordinatesAndAtomicSpecies
   5.0000000  12.3830404   1.4237159  1 Cwid
   5.0000000  12.3830404   2.8439965  1 Cwid
   5.0000000  12.3830404   5.6845431  1 Cwid
   5.0000000  12.3830404   7.1048231  1 Cwid
   5.0000000  12.3830404  39.7713203  1 Cwid
   5.0000000  12.3830404  41.1916008  1 Cwid
   5.0000000  12.3830404  44.0321617  1 Cwid
   5.0000000  12.3830404  45.4524422  1 Cwid
   5.0000000  13.6130400   0.7135710  1 Cwid
   5.0000000  16.0730400   0.7135710  1 Cwid
   5.0000000  14.8430395   1.4237159  1 Cwid
   5.0000000  14.8430395   2.8439965  1 Cwid
   5.0000000  13.6130400   3.5541368  1 Cwid
   5.0000000  16.0730400   3.5541368  1 Cwid
   5.0000000  13.6130400   4.9744263  1 Cwid
   5.0000000  16.0730400   4.9744263  1 Cwid
   5.0000000  14.8430395   5.6845431  1 Cwid
   5.0000000  18.5330391   0.7135710  1 Cwid
   5.0000000  17.3030396   1.4237159  1 Cwid
   5.0000000  19.7630405   1.4237159  1 Cwid
   5.0000000  17.3030396   2.8439965  1 Cwid
   5.0000000  19.7630405   2.8439965  1 Cwid
   5.0000000  18.5330391   3.5541368  1 Cwid
   5.0000000  18.5330391   4.9744263  1 Cwid
   5.0000000  17.3030396   5.6845431  1 Cwid
   5.0000000  19.7630405   5.6845431  1 Cwid
   5.0000000  14.8430395   7.1048231  1 Cwid
   5.0000000  13.6130400   7.8149872  1 Cwid
   5.0000000  16.0730400   7.8149872  1 Cwid
   5.0000000  17.3030396   7.1048231  1 Cwid
   5.0000000  19.7630405   7.1048231  1 Cwid
   5.0000000  18.5330391   7.8149872  1 Cwid
   5.0000000  13.6130400  39.0611534  1 Cwid
   5.0000000  16.0730400  39.0611534  1 Cwid
   5.0000000  14.8430395  39.7713203  1 Cwid
   5.0000000  18.5330391  39.0611534  1 Cwid
   5.0000000  17.3030396  39.7713203  1 Cwid
   5.0000000  19.7630405  39.7713203  1 Cwid
   5.0000000  14.8430395  41.1916008  1 Cwid
   5.0000000  13.6130400  41.9017143  1 Cwid
   5.0000000  16.0730400  41.9017143  1 Cwid
   5.0000000  13.6130400  43.3219948  1 Cwid
   5.0000000  16.0730400  43.3219948  1 Cwid
   5.0000000  14.8430395  44.0321617  1 Cwid
   5.0000000  14.8430395  45.4524422  1 Cwid
   5.0000000  13.6130400  46.1625595  1 Cwid
   5.0000000  16.0730400  46.1625595  1 Cwid
   5.0000000  17.3030396  41.1916008  1 Cwid
   5.0000000  19.7630405  41.1916008  1 Cwid
   5.0000000  18.5330391  41.9017143  1 Cwid
   5.0000000  18.5330391  43.3219948  1 Cwid
   5.0000000  17.3030396  44.0321617  1 Cwid
   5.0000000  19.7630405  44.0321617  1 Cwid
   5.0000000  17.3030396  45.4524422  1 Cwid
   5.0000000  19.7630405  45.4524422  1 Cwid
   5.0000000  18.5330391  46.1625595  1 Cwid
   5.0000000  20.9930401   0.7135710  1 Cwid
   5.0000000  22.2230396   1.4237159  1 Cwid
   5.0000000  22.2230396   2.8439965  1 Cwid
   5.0000000  20.9930401   3.5541368  1 Cwid
   5.0000000  20.9930401   4.9744263  1 Cwid
   5.0000000  22.2230396   5.6845431  1 Cwid
   5.0000000  23.4530411   0.7135710  1 Cwid
   5.0000000  25.9130402   0.7135710  1 Cwid
   5.0000000  24.6830387   1.4237159  1 Cwid
   5.0000000  24.6830387   2.8439965  1 Cwid
   5.0000000  23.4530411   3.5541368  1 Cwid
   5.0000000  25.9130402   3.5541368  1 Cwid
   5.0000000  23.4530411   4.9744263  1 Cwid
   5.0000000  25.9130402   4.9744263  1 Cwid
   5.0000000  24.6830387   5.6845431  1 Cwid
   5.0000000  22.2230396   7.1048231  1 Cwid
   5.0000000  20.9930401   7.8149872  1 Cwid
   5.0000000  24.6830387   7.1048231  1 Cwid
   5.0000000  23.4530411   7.8149872  1 Cwid
   5.0000000  25.9130402   7.8149872  1 Cwid
   5.0000000  20.9930401  39.0611534  1 Cwid
   5.0000000  22.2230396  39.7713203  1 Cwid
   5.0000000  23.4530411  39.0611534  1 Cwid
   5.0000000  25.9130402  39.0611534  1 Cwid
   5.0000000  24.6830387  39.7713203  1 Cwid
   5.0000000  22.2230396  41.1916008  1 Cwid
   5.0000000  20.9930401  41.9017143  1 Cwid
   5.0000000  20.9930401  43.3219948  1 Cwid
   5.0000000  22.2230396  44.0321617  1 Cwid
   5.0000000  22.2230396  45.4524422  1 Cwid
   5.0000000  20.9930401  46.1625595  1 Cwid
   5.0000000  24.6830387  41.1916008  1 Cwid
   5.0000000  23.4530411  41.9017143  1 Cwid
   5.0000000  25.9130402  41.9017143  1 Cwid
   5.0000000  23.4530411  43.3219948  1 Cwid
   5.0000000  25.9130402  43.3219948  1 Cwid
   5.0000000  24.6830387  44.0321617  1 Cwid
   5.0000000  24.6830387  45.4524422  1 Cwid
   5.0000000  23.4530411  46.1625595  1 Cwid
   5.0000000  25.9130402  46.1625595  1 Cwid
   5.0000000  28.3730392   0.7135710  1 Cwid
   5.0000000  27.1430397   1.4237159  1 Cwid
   5.0000000  29.6030407   1.4237159  1 Cwid
   5.0000000  27.1430397   2.8439965  1 Cwid
   5.0000000  29.6030407   2.8439965  1 Cwid
   5.0000000  28.3730392   3.5541368  1 Cwid
   5.0000000  28.3730392   4.9744263  1 Cwid
   5.0000000  27.1430397   5.6845431  1 Cwid
   5.0000000  29.6030407   5.6845431  1 Cwid
   5.0000000  30.8330402   0.7135710  1 Cwid
   5.0000000  33.2930412   0.7135710  1 Cwid
   5.0000000  32.0630417   1.4237159  1 Cwid
   5.0000000  32.0630417   2.8439965  1 Cwid
   5.0000000  30.8330402   3.5541368  1 Cwid
   5.0000000  33.2930412   3.5541368  1 Cwid
   5.0000000  30.8330402   4.9744263  1 Cwid
   5.0000000  33.2930412   4.9744263  1 Cwid
   5.0000000  32.0630417   5.6845431  1 Cwid
   5.0000000  27.1430397   7.1048231  1 Cwid
   5.0000000  29.6030407   7.1048231  1 Cwid
   5.0000000  28.3730392   7.8149872  1 Cwid
   5.0000000  32.0630417   7.1048231  1 Cwid
   5.0000000  30.8330402   7.8149872  1 Cwid
   5.0000000  33.2930412   7.8149872  1 Cwid
   5.0000000  28.3730392  39.0611534  1 Cwid
   5.0000000  27.1430397  39.7713203  1 Cwid
   5.0000000  29.6030407  39.7713203  1 Cwid
   5.0000000  30.8330402  39.0611534  1 Cwid
   5.0000000  33.2930412  39.0611534  1 Cwid
   5.0000000  32.0630417  39.7713203  1 Cwid
   5.0000000  27.1430397  41.1916008  1 Cwid
   5.0000000  29.6030407  41.1916008  1 Cwid
   5.0000000  28.3730392  41.9017143  1 Cwid
   5.0000000  28.3730392  43.3219948  1 Cwid
   5.0000000  27.1430397  44.0321617  1 Cwid
   5.0000000  29.6030407  44.0321617  1 Cwid
   5.0000000  27.1430397  45.4524422  1 Cwid
   5.0000000  29.6030407  45.4524422  1 Cwid
   5.0000000  28.3730392  46.1625595  1 Cwid
   5.0000000  32.0630417  41.1916008  1 Cwid
   5.0000000  30.8330402  41.9017143  1 Cwid
   5.0000000  33.2930412  41.9017143  1 Cwid
   5.0000000  30.8330402  43.3219948  1 Cwid
   5.0000000  33.2930412  43.3219948  1 Cwid
   5.0000000  32.0630417  44.0321617  1 Cwid
   5.0000000  32.0630417  45.4524422  1 Cwid
   5.0000000  30.8330402  46.1625595  1 Cwid
   5.0000000  33.2930412  46.1625595  1 Cwid
   5.0000000  35.7530403   0.7135710  1 Cwid
   5.0000000  34.5230408   1.4237159  1 Cwid
   5.0000000  34.5230408   2.8439965  1 Cwid
   5.0000000  35.7530403   3.5541368  1 Cwid
   5.0000000  35.7530403   4.9744263  1 Cwid
   5.0000000  34.5230408   5.6845431  1 Cwid
   5.0000000  38.2130394   0.7135710  1 Cwid
   5.0000000  36.9830399   1.4237159  1 Cwid
   5.0000000  39.4430389   1.4237159  1 Cwid
   5.0000000  36.9830399   2.8439965  1 Cwid
   5.0000000  39.4430389   2.8439965  1 Cwid
   5.0000000  38.2130394   3.5541368  1 Cwid
   5.0000000  38.2130394   4.9744263  1 Cwid
   5.0000000  36.9830399   5.6845431  1 Cwid
   5.0000000  39.4430389   5.6845431  1 Cwid
   5.0000000  34.5230408   7.1048231  1 Cwid
   5.0000000  35.7530403   7.8149872  1 Cwid
   5.0000000  36.9830399   7.1048231  1 Cwid
   5.0000000  39.4430389   7.1048231  1 Cwid
   5.0000000  38.2130394   7.8149872  1 Cwid
   5.0000000  35.7530403  39.0611534  1 Cwid
   5.0000000  34.5230408  39.7713203  1 Cwid
   5.0000000  38.2130394  39.0611534  1 Cwid
   5.0000000  36.9830399  39.7713203  1 Cwid
   5.0000000  39.4430389  39.7713203  1 Cwid
   5.0000000  34.5230408  41.1916008  1 Cwid
   5.0000000  35.7530403  41.9017143  1 Cwid
   5.0000000  35.7530403  43.3219948  1 Cwid
   5.0000000  34.5230408  44.0321617  1 Cwid
   5.0000000  34.5230408  45.4524422  1 Cwid
   5.0000000  35.7530403  46.1625595  1 Cwid
   5.0000000  36.9830399  41.1916008  1 Cwid
   5.0000000  39.4430389  41.1916008  1 Cwid
   5.0000000  38.2130394  41.9017143  1 Cwid
   5.0000000  38.2130394  43.3219948  1 Cwid
   5.0000000  36.9830399  44.0321617  1 Cwid
   5.0000000  39.4430389  44.0321617  1 Cwid
   5.0000000  36.9830399  45.4524422  1 Cwid
   5.0000000  39.4430389  45.4524422  1 Cwid
   5.0000000  38.2130394  46.1625595  1 Cwid
   5.0000000  40.6730385   0.7135710  1 Cwid
   5.0000000  43.1330414   0.7135710  1 Cwid
   5.0000000  41.9030380   1.4237159  1 Cwid
   5.0000000  41.9030380   2.8439965  1 Cwid
   5.0000000  40.6730385   3.5541368  1 Cwid
   5.0000000  43.1330414   3.5541368  1 Cwid
   5.0000000  40.6730385   4.9744263  1 Cwid
   5.0000000  43.1330414   4.9744263  1 Cwid
   5.0000000  41.9030380   5.6845431  1 Cwid
   5.0000000  45.5930405   0.7135710  1 Cwid
   5.0000000  44.3630409   1.4237159  1 Cwid
   5.0000000  44.3630409   2.8439965  1 Cwid
   5.0000000  45.5930405   3.5541368  1 Cwid
   5.0000000  45.5930405   4.9744263  1 Cwid
   5.0000000  44.3630409   5.6845431  1 Cwid
   5.0000000  41.9030380   7.1048231  1 Cwid
   5.0000000  40.6730385   7.8149872  1 Cwid
   5.0000000  43.1330414   7.8149872  1 Cwid
   5.0000000  44.3630409   7.1048231  1 Cwid
   5.0000000  45.5930405   7.8149872  1 Cwid
   5.0000000  40.6730385  39.0611534  1 Cwid
   5.0000000  43.1330414  39.0611534  1 Cwid
   5.0000000  41.9030380  39.7713203  1 Cwid
   5.0000000  45.5930405  39.0611534  1 Cwid
   5.0000000  44.3630409  39.7713203  1 Cwid
   5.0000000  41.9030380  41.1916008  1 Cwid
   5.0000000  40.6730385  41.9017143  1 Cwid
   5.0000000  43.1330414  41.9017143  1 Cwid
   5.0000000  40.6730385  43.3219948  1 Cwid
   5.0000000  43.1330414  43.3219948  1 Cwid
   5.0000000  41.9030380  44.0321617  1 Cwid
   5.0000000  41.9030380  45.4524422  1 Cwid
   5.0000000  40.6730385  46.1625595  1 Cwid
   5.0000000  43.1330414  46.1625595  1 Cwid
   5.0000000  44.3630409  41.1916008  1 Cwid
   5.0000000  45.5930405  41.9017143  1 Cwid
   5.0000000  45.5930405  43.3219948  1 Cwid
   5.0000000  44.3630409  44.0321617  1 Cwid
   5.0000000  44.3630409  45.4524422  1 Cwid
   5.0000000  45.5930405  46.1625595  1 Cwid
   5.0000000  46.8230400   1.4237159  1 Cwid
   5.0000000  46.8230400   2.8439965  1 Cwid
   5.0000000  46.8230400   5.6845431  1 Cwid
   5.0000000  46.8230400   7.1048231  1 Cwid
   5.0000000  46.8230400  39.7713203  1 Cwid
   5.0000000  46.8230400  41.1916008  1 Cwid
   5.0000000  46.8230400  44.0321617  1 Cwid
   5.0000000  46.8230400  45.4524422  1 Cwid
   5.0000000  11.4389400   0.8786541  2 H   
   5.0000000  11.4389400   3.3890581  2 H   
   5.0000000  11.4389400   5.1395001  2 H   
   5.0000000  11.4389400   7.6499138  2 H   
   5.0000000  11.4389400  39.2262306  2 H   
   5.0000000  11.4389400  41.7366447  2 H   
   5.0000000  11.4389400  43.4870720  2 H   
   5.0000000  11.4389400  45.9974861  2 H   
   5.0000000  13.6130400   8.9051199  2 H   
   5.0000000  16.0730400   8.9051199  2 H   
   5.0000000  18.5330391   8.9051199  2 H   
   5.0000000  13.6130400  37.9710236  2 H   
   5.0000000  16.0730400  37.9710236  2 H   
   5.0000000  18.5330391  37.9710236  2 H   
   5.0000000  20.9930401   8.9051199  2 H   
   5.0000000  23.4530411   8.9051199  2 H   
   5.0000000  24.9689388   9.7803106  2 H   
   5.0000000  24.9689388  11.5307388  2 H   
   5.0000000  24.9689388  14.0411520  2 H   
   5.0000000  24.9689388  15.7915802  2 H   
   5.0000000  24.9689388  18.3019924  2 H   
   5.0000000  24.9689388  20.0524673  2 H   
   5.0000000  24.9689388  22.5628338  2 H   
   5.0000000  24.9689388  24.3133087  2 H   
   5.0000000  24.9689388  26.8236752  2 H   
   5.0000000  24.9689388  28.5741501  2 H   
   5.0000000  24.9689388  31.0845165  2 H   
   5.0000000  24.9689388  32.8349915  2 H   
   5.0000000  20.9930401  37.9710236  2 H   
   5.0000000  24.9689388  35.3453598  2 H   
   5.0000000  24.9689388  37.0958328  2 H   
   5.0000000  23.4530411  37.9710236  2 H   
   5.0000000  35.7530403   8.9051199  2 H   
   5.0000000  34.2370796   9.7803106  2 H   
   5.0000000  34.2370796  11.5307388  2 H   
   5.0000000  38.2130394   8.9051199  2 H   
   5.0000000  34.2370796  14.0411520  2 H   
   5.0000000  34.2370796  15.7915802  2 H   
   5.0000000  34.2370796  18.3019924  2 H   
   5.0000000  34.2370796  20.0524673  2 H   
   5.0000000  34.2370796  22.5628338  2 H   
   5.0000000  34.2370796  24.3133087  2 H   
   5.0000000  34.2370796  26.8236752  2 H   
   5.0000000  34.2370796  28.5741501  2 H   
   5.0000000  34.2370796  31.0845165  2 H   
   5.0000000  34.2370796  32.8349915  2 H   
   5.0000000  34.2370796  35.3453598  2 H   
   5.0000000  34.2370796  37.0958328  2 H   
   5.0000000  35.7530403  37.9710236  2 H   
   5.0000000  38.2130394  37.9710236  2 H   
   5.0000000  40.6730385   8.9051199  2 H   
   5.0000000  43.1330414   8.9051199  2 H   
   5.0000000  45.5930405   8.9051199  2 H   
   5.0000000  40.6730385  37.9710236  2 H   
   5.0000000  43.1330414  37.9710236  2 H   
   5.0000000  45.5930405  37.9710236  2 H   
   5.0000000  47.7670822   0.8786541  2 H   
   5.0000000  47.7670822   3.3890581  2 H   
   5.0000000  47.7670822   5.1395001  2 H   
   5.0000000  47.7670822   7.6499138  2 H   
   5.0000000  47.7670822  39.2262306  2 H   
   5.0000000  47.7670822  41.7366447  2 H   
   5.0000000  47.7670822  43.4870720  2 H   
   5.0000000  47.7670822  45.9974861  2 H   
   5.0000000  25.9130402   9.2352676  3 Cnar
   5.0000000  25.9130402  12.0758286  3 Cnar
   5.0000000  25.9130402  13.4961090  3 Cnar
   5.0000000  25.9130402  16.3366699  3 Cnar
   5.0000000  25.9130402  17.7569504  3 Cnar
   5.0000000  25.9130402  20.5975113  3 Cnar
   5.0000000  25.9130402  22.0177917  3 Cnar
   5.0000000  25.9130402  24.8583527  3 Cnar
   5.0000000  25.9130402  26.2786331  3 Cnar
   5.0000000  25.9130402  29.1191940  3 Cnar
   5.0000000  25.9130402  30.5394745  3 Cnar
   5.0000000  25.9130402  33.3800354  3 Cnar
   5.0000000  25.9130402  34.8003159  3 Cnar
   5.0000000  25.9130402  37.6408768  3 Cnar
   5.0000000  28.3730392   9.2352676  3 Cnar
   5.0000000  27.1430397   9.9453840  3 Cnar
   5.0000000  29.6030407   9.9453840  3 Cnar
   5.0000000  27.1430397  11.3656645  3 Cnar
   5.0000000  29.6030407  11.3656645  3 Cnar
   5.0000000  30.8330402   9.2352676  3 Cnar
   5.0000000  33.2930412   9.2352676  3 Cnar
   5.0000000  32.0630417   9.9453840  3 Cnar
   5.0000000  32.0630417  11.3656645  3 Cnar
   5.0000000  28.3730392  12.0758286  3 Cnar
   5.0000000  28.3730392  13.4961090  3 Cnar
   5.0000000  27.1430397  14.2062254  3 Cnar
   5.0000000  29.6030407  14.2062254  3 Cnar
   5.0000000  27.1430397  15.6265059  3 Cnar
   5.0000000  29.6030407  15.6265059  3 Cnar
   5.0000000  28.3730392  16.3366699  3 Cnar
   5.0000000  30.8330402  12.0758286  3 Cnar
   5.0000000  33.2930412  12.0758286  3 Cnar
   5.0000000  30.8330402  13.4961090  3 Cnar
   5.0000000  33.2930412  13.4961090  3 Cnar
   5.0000000  32.0630417  14.2062254  3 Cnar
   5.0000000  32.0630417  15.6265059  3 Cnar
   5.0000000  30.8330402  16.3366699  3 Cnar
   5.0000000  33.2930412  16.3366699  3 Cnar
   5.0000000  28.3730392  17.7569504  3 Cnar
   5.0000000  27.1430397  18.4670677  3 Cnar
   5.0000000  29.6030407  18.4670677  3 Cnar
   5.0000000  27.1430397  19.8873482  3 Cnar
   5.0000000  29.6030407  19.8873482  3 Cnar
   5.0000000  28.3730392  20.5975113  3 Cnar
   5.0000000  28.3730392  22.0177917  3 Cnar
   5.0000000  27.1430397  22.7279091  3 Cnar
   5.0000000  29.6030407  22.7279091  3 Cnar
   5.0000000  30.8330402  17.7569504  3 Cnar
   5.0000000  33.2930412  17.7569504  3 Cnar
   5.0000000  32.0630417  18.4670677  3 Cnar
   5.0000000  32.0630417  19.8873482  3 Cnar
   5.0000000  30.8330402  20.5975113  3 Cnar
   5.0000000  33.2930412  20.5975113  3 Cnar
   5.0000000  30.8330402  22.0177917  3 Cnar
   5.0000000  33.2930412  22.0177917  3 Cnar
   5.0000000  32.0630417  22.7279091  3 Cnar
   5.0000000  27.1430397  24.1481876  3 Cnar
   5.0000000  29.6030407  24.1481876  3 Cnar
   5.0000000  28.3730392  24.8583527  3 Cnar
   5.0000000  28.3730392  26.2786331  3 Cnar
   5.0000000  27.1430397  26.9887486  3 Cnar
   5.0000000  29.6030407  26.9887486  3 Cnar
   5.0000000  27.1430397  28.4090767  3 Cnar
   5.0000000  29.6030407  28.4090767  3 Cnar
   5.0000000  28.3730392  29.1191940  3 Cnar
   5.0000000  32.0630417  24.1481876  3 Cnar
   5.0000000  30.8330402  24.8583527  3 Cnar
   5.0000000  33.2930412  24.8583527  3 Cnar
   5.0000000  30.8330402  26.2786331  3 Cnar
   5.0000000  33.2930412  26.2786331  3 Cnar
   5.0000000  32.0630417  26.9887486  3 Cnar
   5.0000000  32.0630417  28.4090767  3 Cnar
   5.0000000  30.8330402  29.1191940  3 Cnar
   5.0000000  33.2930412  29.1191940  3 Cnar
   5.0000000  28.3730392  30.5394745  3 Cnar
   5.0000000  27.1430397  31.2496376  3 Cnar
   5.0000000  29.6030407  31.2496376  3 Cnar
   5.0000000  27.1430397  32.6699181  3 Cnar
   5.0000000  29.6030407  32.6699181  3 Cnar
   5.0000000  28.3730392  33.3800354  3 Cnar
   5.0000000  28.3730392  34.8003159  3 Cnar
   5.0000000  30.8330402  30.5394745  3 Cnar
   5.0000000  33.2930412  30.5394745  3 Cnar
   5.0000000  32.0630417  31.2496376  3 Cnar
   5.0000000  32.0630417  32.6699181  3 Cnar
   5.0000000  30.8330402  33.3800354  3 Cnar
   5.0000000  33.2930412  33.3800354  3 Cnar
   5.0000000  30.8330402  34.8003159  3 Cnar
   5.0000000  33.2930412  34.8003159  3 Cnar
   5.0000000  27.1430397  35.5104790  3 Cnar
   5.0000000  29.6030407  35.5104790  3 Cnar
   5.0000000  27.1430397  36.9307594  3 Cnar
   5.0000000  29.6030407  36.9307594  3 Cnar
   5.0000000  28.3730392  37.6408768  3 Cnar
   5.0000000  32.0630417  35.5104790  3 Cnar
   5.0000000  32.0630417  36.9307594  3 Cnar
   5.0000000  30.8330402  37.6408768  3 Cnar
   5.0000000  33.2930412  37.6408768  3 Cnar
 %endblock AtomicCoordinatesAndAtomicSpecies
