 %block AtomicCoordinatesAndAtomicSpecies
    5.001222   12.511327    1.463453  3 Celec
    5.001224   12.511391    2.844575  3 Celec
    5.001223   13.725525    0.722544  3 Celec
    5.001222   14.966450    1.438220  3 Celec
    5.001223   14.966568    2.869578  3 Celec
    5.001221   13.725640    3.585259  3 Celec
    5.001224   16.211569    0.717133  3 Celec
    5.001222   18.691344    0.718358  3 Celec
    5.001222   17.449983    1.438019  3 Celec
    5.001221   17.450003    2.870107  3 Celec
    5.001221   16.211609    3.590899  3 Celec
    5.001224   18.691371    3.589622  3 Celec
    5.001224   21.175759    0.718650  3 Celec
    5.001223   19.934248    1.438541  3 Celec
    5.001221   19.934219    2.869126  3 Celec
    5.001220   21.175767    3.589001  3 Celec
    5.001223   23.659646    0.718419  3 Celec
    5.001224   22.418140    1.438629  3 Celec
    5.001221   24.900655    1.438758  3 Celec
    5.001220   22.418135    2.868970  3 Celec
    5.001221   24.900666    2.869271  3 Celec
    5.001224   23.659506    3.589313  3 Celec
    5.001224   26.141501    0.718575  3 Celec
    5.001221   28.622670    0.718667  3 Celec
    5.001224   27.382050    1.439077  3 Celec
    5.001221   27.382015    2.869484  3 Celec
    5.001221   26.141470    3.589794  3 Celec
    5.001223   28.622647    3.589730  3 Celec
    5.001223   31.104366    0.718477  3 Celec
    5.001220   29.863450    1.438789  3 Celec
    5.001224   29.863360    2.869269  3 Celec
    5.001221   31.104409    3.589490  3 Celec
    5.001223   33.586719    0.718466  3 Celec
    5.001224   32.345553    1.438656  3 Celec
    5.001220   34.827794    1.438828  3 Celec
    5.001221   32.345548    2.869241  3 Celec
    5.001223   34.827905    2.869344  3 Celec
    5.001223   33.586730    3.589526  3 Celec
    5.001222   36.068701    0.718740  3 Celec
    5.001224   37.309681    1.439174  3 Celec
    5.001220   37.309747    2.869408  3 Celec
    5.001224   36.068716    3.589703  3 Celec
    5.001223   38.551522    0.719001  3 Celec
    5.001221   41.035748    0.718404  3 Celec
    5.001221   39.792760    1.438805  3 Celec
    5.001223   39.792737    2.869342  3 Celec
    5.001220   38.551588    3.589403  3 Celec
    5.001224   41.035729    3.589638  3 Celec
    5.001221   43.516495    0.717185  3 Celec
    5.001223   42.277586    1.437822  3 Celec
    5.001221   42.277532    2.870073  3 Celec
    5.001223   43.516466    3.590762  3 Celec
    5.001220   46.002953    0.722913  3 Celec
    5.001222   44.761918    1.438368  3 Celec
    5.001223   47.217284    1.463736  3 Celec
    5.001224   44.761924    2.869799  3 Celec
    5.001222   47.217326    2.844914  3 Celec
    5.001224   46.002912    3.585518  3 Celec
    5.001222   11.544314    0.944446  4 H
    5.001223   11.544525    3.363967  4 H
    5.001222   48.184437    0.944804  4 H
    5.001222   48.184349    3.364162  4 H
    5.000154   12.461513    5.748990   1 Cwid
    5.000154   12.461695    7.166095   1 Cwid
    5.000154   12.462194   10.051037   1 Cwid
    5.000154   12.464469   11.478370   1 Cwid
    5.000154   12.464449   44.487114   1 Cwid
    5.000154   12.462165   45.914421   1 Cwid
    5.000154   12.461651   48.799408   1 Cwid
    5.000154   12.461462   50.216499   1 Cwid
    5.000154   13.693523    5.026275   1 Cwid
    5.000154   16.172498    5.022299   1 Cwid
    5.000154   14.932521    5.740142   1 Cwid
    5.000154   14.932486    7.174920   1 Cwid
    5.000154   13.693451    7.888088   1 Cwid
    5.000154   16.172641    7.892013   1 Cwid
    5.000154   13.692665    9.332336   1 Cwid
    5.000154   16.172532    9.328290   1 Cwid
    5.000154   14.932798   10.043786   1 Cwid
    5.000154   18.646135    5.022485   1 Cwid
    5.000154   17.408535    5.738864   1 Cwid
    5.000154   19.884404    5.739526   1 Cwid
    5.000154   17.408305    7.176204   1 Cwid
    5.000154   19.884162    7.175549   1 Cwid
    5.000154   18.646380    7.892091   1 Cwid
    5.000154   18.646212    9.328169   1 Cwid
    5.000154   17.408346   10.042152   1 Cwid
    5.000154   19.884576   10.042404   1 Cwid
    5.000154   14.934750   11.485725   1 Cwid
    5.000154   13.690404   12.192842   1 Cwid
    5.000154   16.171498   12.192991   1 Cwid
    5.000154   17.408668   11.487555   1 Cwid
    5.000154   19.883621   11.487375   1 Cwid
    5.000154   18.646620   12.192976   1 Cwid
    5.000154   13.690369   43.772644   1 Cwid
    5.000154   16.171469   43.772499   1 Cwid
    5.000154   14.934715   44.479744   1 Cwid
    5.000154   18.646588   43.772499   1 Cwid
    5.000154   17.408638   44.477913   1 Cwid
    5.000154   19.883582   44.478088   1 Cwid
    5.000154   14.932745   45.921677   1 Cwid
    5.000154   13.692625   46.633110   1 Cwid
    5.000154   16.172491   46.637161   1 Cwid
    5.000154   13.693405   48.077377   1 Cwid
    5.000154   16.172603   48.073425   1 Cwid
    5.000154   14.932433   48.790565   1 Cwid
    5.000154   14.932465   50.225349   1 Cwid
    5.000154   13.693471   50.939194   1 Cwid
    5.000154   16.172440   50.943153   1 Cwid
    5.000154   17.408305   45.923309   1 Cwid
    5.000154   19.884531   45.923042   1 Cwid
    5.000154   18.646163   46.637283   1 Cwid
    5.000154   18.646322   48.073364   1 Cwid
    5.000154   17.408249   48.789276   1 Cwid
    5.000154   19.884107   48.789940   1 Cwid
    5.000154   17.408495   50.226616   1 Cwid
    5.000154   19.884336   50.225952   1 Cwid
    5.000154   18.646087   50.942970   1 Cwid
    5.000154   21.121081    5.023044   1 Cwid
    5.000154   22.359093    5.739894   1 Cwid
    5.000154   22.358872    7.175158   1 Cwid
    5.000154   21.121282    7.891570   1 Cwid
    5.000154   21.120612    9.328620   1 Cwid
    5.000154   22.359759   10.042910   1 Cwid
    5.000154   23.596636    5.022946   1 Cwid
    5.000154   26.071583    5.022243   1 Cwid
    5.000154   24.833700    5.739779   1 Cwid
    5.000154   24.833218    7.175257   1 Cwid
    5.000154   23.596936    7.891549   1 Cwid
    5.000154   26.071773    7.893089   1 Cwid
    5.000154   23.595757    9.328588   1 Cwid
    5.000154   26.070364    9.327026   1 Cwid
    5.000154   24.834165   10.043859   1 Cwid
    5.000154   22.357367   11.486626   1 Cwid
    5.000154   21.122313   12.192739   1 Cwid
    5.000154   24.824980   11.483290   1 Cwid
    5.000154   23.599625   12.190828   1 Cwid
    5.000154   26.073814   12.206068   1 Cwid
    5.000154   21.122272   43.772736   1 Cwid
    5.000154   22.357323   44.478828   1 Cwid
    5.000154   23.599591   43.774628   1 Cwid
    5.000154   26.073771   43.759399   1 Cwid
    5.000154   24.824931   44.482155   1 Cwid
    5.000154   22.359717   45.922546   1 Cwid
    5.000154   21.120569   46.636818   1 Cwid
    5.000154   21.121244   48.073868   1 Cwid
    5.000154   22.358809   48.790306   1 Cwid
    5.000154   22.359037   50.225586   1 Cwid
    5.000154   21.121019   50.942398   1 Cwid
    5.000154   24.834117   45.921577   1 Cwid
    5.000154   23.595717   46.636848   1 Cwid
    5.000154   26.070316   46.638390   1 Cwid
    5.000154   23.596876   48.073891   1 Cwid
    5.000154   26.071731   48.072357   1 Cwid
    5.000154   24.833164   48.790207   1 Cwid
    5.000154   24.833646   50.225693   1 Cwid
    5.000154   23.596575   50.942490   1 Cwid
    5.000154   26.071523   50.943184   1 Cwid
    5.000154   28.546335    5.022666   1 Cwid
    5.000154   27.309354    5.739791   1 Cwid
    5.000154   29.784108    5.740249   1 Cwid
    5.000154   27.309393    7.175278   1 Cwid
    5.000154   29.784103    7.174827   1 Cwid
    5.000154   28.546316    7.892192   1 Cwid
    5.000154   28.545475    9.327927   1 Cwid
    5.000154   27.310482   10.045080   1 Cwid
    5.000154   29.784105   10.046532   1 Cwid
    5.000154   31.021930    5.022676   1 Cwid
    5.000154   33.496703    5.022239   1 Cwid
    5.000154   32.258964    5.739787   1 Cwid
    5.000154   32.258932    7.175271   1 Cwid
    5.000154   31.021940    7.892175   1 Cwid
    5.000154   33.496489    7.893093   1 Cwid
    5.000154   31.022777    9.327900   1 Cwid
    5.000154   33.497907    9.327039   1 Cwid
    5.000154   32.257829   10.045082   1 Cwid
    5.000154   27.309956   11.480209   1 Cwid
    5.000154   29.784112   11.478533   1 Cwid
    5.000154   28.545864   12.197858   1 Cwid
    5.000154   32.258354   11.480192   1 Cwid
    5.000154   31.022388   12.197870   1 Cwid
    5.000154   33.494453   12.206039   1 Cwid
    5.000154   28.545819   43.767578   1 Cwid
    5.000154   27.309916   44.485237   1 Cwid
    5.000154   29.784060   44.486900   1 Cwid
    5.000154   31.022351   43.767578   1 Cwid
    5.000154   33.494411   43.759377   1 Cwid
    5.000154   32.258319   44.485222   1 Cwid
    5.000154   27.310435   45.920341   1 Cwid
    5.000154   29.784062   45.918900   1 Cwid
    5.000154   28.545436   46.637505   1 Cwid
    5.000154   28.546271   48.073242   1 Cwid
    5.000154   27.309342   48.790176   1 Cwid
    5.000154   29.784054   48.790627   1 Cwid
    5.000154   27.309303   50.225693   1 Cwid
    5.000154   29.784052   50.225220   1 Cwid
    5.000154   28.546277   50.942772   1 Cwid
    5.000154   32.257788   45.920341   1 Cwid
    5.000154   31.022732   46.637489   1 Cwid
    5.000154   33.497868   46.638382   1 Cwid
    5.000154   31.021894   48.073265   1 Cwid
    5.000154   33.496441   48.072319   1 Cwid
    5.000154   32.258882   48.790176   1 Cwid
    5.000154   32.258917   50.225685   1 Cwid
    5.000154   31.021877   50.942741   1 Cwid
    5.000154   33.496649   50.943192   1 Cwid
    5.000154   35.971617    5.022940   1 Cwid
    5.000154   34.734515    5.739768   1 Cwid
    5.000154   34.734995    7.175247   1 Cwid
    5.000154   35.971324    7.891527   1 Cwid
    5.000154   35.972479    9.328557   1 Cwid
    5.000154   34.734045   10.043837   1 Cwid
    5.000154   38.447211    5.023023   1 Cwid
    5.000154   37.209219    5.739887   1 Cwid
    5.000154   39.683814    5.739518   1 Cwid
    5.000154   37.209447    7.175149   1 Cwid
    5.000154   39.684050    7.175520   1 Cwid
    5.000154   38.446986    7.891562   1 Cwid
    5.000154   38.447668    9.328605   1 Cwid
    5.000154   37.208553   10.042885   1 Cwid
    5.000154   39.683628   10.042400   1 Cwid
    5.000154   34.743219   11.483294   1 Cwid
    5.000154   35.968622   12.190809   1 Cwid
    5.000154   37.210952   11.486597   1 Cwid
    5.000154   39.684567   11.487364   1 Cwid
    5.000154   38.445966   12.192705   1 Cwid
    5.000154   35.968586   43.774612   1 Cwid
    5.000154   34.743185   44.482132   1 Cwid
    5.000154   38.445923   43.772705   1 Cwid
    5.000154   37.210914   44.478813   1 Cwid
    5.000154   39.684514   44.478058   1 Cwid
    5.000154   34.734005   45.921562   1 Cwid
    5.000154   35.972434   46.636826   1 Cwid
    5.000154   35.971272   48.073891   1 Cwid
    5.000154   34.734942   48.790192   1 Cwid
    5.000154   34.734458   50.225693   1 Cwid
    5.000154   35.971566   50.942467   1 Cwid
    5.000154   37.208517   45.922523   1 Cwid
    5.000154   39.683585   45.923019   1 Cwid
    5.000154   38.447622   46.636803   1 Cwid
    5.000154   38.446947   48.073853   1 Cwid
    5.000154   37.209396   48.790291   1 Cwid
    5.000154   39.684008   48.789909   1 Cwid
    5.000154   37.209167   50.225563   1 Cwid
    5.000154   39.683771   50.225937   1 Cwid
    5.000154   38.447161   50.942383   1 Cwid
    5.000154   40.922100    5.022460   1 Cwid
    5.000154   43.395792    5.022272   1 Cwid
    5.000154   42.159758    5.738841   1 Cwid
    5.000154   42.160005    7.176193   1 Cwid
    5.000154   40.921878    7.892054   1 Cwid
    5.000154   43.395627    7.892002   1 Cwid
    5.000154   40.922013    9.328130   1 Cwid
    5.000154   43.395756    9.328271   1 Cwid
    5.000154   42.159936   10.042124   1 Cwid
    5.000154   45.874724    5.026231   1 Cwid
    5.000154   44.635717    5.740116   1 Cwid
    5.000154   44.635735    7.174880   1 Cwid
    5.000154   45.874795    7.888045   1 Cwid
    5.000154   45.875582    9.332303   1 Cwid
    5.000154   44.635453   10.043765   1 Cwid
    5.000154   42.159638   11.487514   1 Cwid
    5.000154   40.921602   12.192938   1 Cwid
    5.000154   43.396771   12.192936   1 Cwid
    5.000154   44.633446   11.485708   1 Cwid
    5.000154   45.877832   12.192801   1 Cwid
    5.000154   40.921564   43.772476   1 Cwid
    5.000154   43.396736   43.772453   1 Cwid
    5.000154   42.159598   44.477890   1 Cwid
    5.000154   45.877793   43.772598   1 Cwid
    5.000154   44.633400   44.479698   1 Cwid
    5.000154   42.159893   45.923279   1 Cwid
    5.000154   40.921971   46.637268   1 Cwid
    5.000154   43.395705   46.637131   1 Cwid
    5.000154   40.921816   48.073341   1 Cwid
    5.000154   43.395584   48.073402   1 Cwid
    5.000154   42.159962   48.789246   1 Cwid
    5.000154   42.159713   50.226601   1 Cwid
    5.000154   40.922050   50.942940   1 Cwid
    5.000154   43.395741   50.943138   1 Cwid
    5.000154   44.635398   45.921638   1 Cwid
    5.000154   45.875530   46.633095   1 Cwid
    5.000154   45.874741   48.077339   1 Cwid
    5.000154   44.635692   48.790550   1 Cwid
    5.000154   44.635660   50.225311   1 Cwid
    5.000154   45.874676   50.939148   1 Cwid
    5.000154   47.106716    5.748948   1 Cwid
    5.000154   47.106534    7.166052   1 Cwid
    5.000154   47.106022   10.051004   1 Cwid
    5.000154   47.103756   11.478319   1 Cwid
    5.000154   47.103723   44.487076   1 Cwid
    5.000154   47.105982   45.914391   1 Cwid
    5.000154   47.106483   48.799370   1 Cwid
    5.000154   47.106667   50.216461   1 Cwid
    5.000154   11.508690    5.190498   4 H
    5.000154   11.508691    7.724536   4 H
    5.000154   11.508695    9.495533   4 H
    5.000154   11.508430   12.031045   4 H
    5.000154   11.508408   43.934448   4 H
    5.000154   11.508667   46.469940   4 H
    5.000154   11.508653   48.240936   4 H
    5.000154   11.508636   50.774979   4 H
    5.000154   13.696403   13.299329   4 H
    5.000154   16.171366   13.299353   4 H
    5.000154   18.646399   13.299337   4 H
    5.000154   13.696370   42.666176   4 H
    5.000154   16.171326   42.666153   4 H
    5.000154   18.646367   42.666168   4 H
    5.000154   21.121464   13.299345   4 H
    5.000154   23.595290   13.298399   4 H
    5.000154   25.122824   14.182562   4 H
    5.000154   25.121420   15.953074   4 H
    5.000154   25.121447   18.487091   4 H
    5.000154   25.121432   20.258137   4 H
    5.000154   25.121430   22.792135   4 H
    5.000154   25.121423   24.563221   4 H
    5.000154   25.121423   27.097181   4 H
    5.000154   25.121421   28.868269   4 H
    5.000154   25.121418   31.402225   4 H
    5.000154   25.121424   33.173317   4 H
    5.000154   25.121418   35.707268   4 H
    5.000154   25.121432   37.478363   4 H
    5.000154   21.121424   42.666145   4 H
    5.000154   25.121400   40.012329   4 H
    5.000154   25.122799   41.782898   4 H
    5.000154   23.595257   42.667076   4 H
    5.000154   35.972956   13.298380   4 H
    5.000154   34.445374   14.182549   4 H
    5.000154   34.446789   15.953066   4 H
    5.000154   38.446792   13.299303   4 H
    5.000154   34.446753   18.487080   4 H
    5.000154   34.446764   20.258118   4 H
    5.000154   34.446757   22.792128   4 H
    5.000154   34.446762   24.563210   4 H
    5.000154   34.446757   27.097174   4 H
    5.000154   34.446756   28.868254   4 H
    5.000154   34.446753   31.402224   4 H
    5.000154   34.446746   33.173302   4 H
    5.000154   34.446748   35.707260   4 H
    5.000154   34.446727   37.478355   4 H
    5.000154   34.446762   40.012321   4 H
    5.000154   34.445343   41.782883   4 H
    5.000154   35.972922   42.667053   4 H
    5.000154   38.446757   42.666115   4 H
    5.000154   40.921834   13.299291   4 H
    5.000154   43.396894   13.299298   4 H
    5.000154   45.871839   13.299272   4 H
    5.000154   40.921803   42.666122   4 H
    5.000154   43.396858   42.666107   4 H
    5.000154   45.871807   42.666122   4 H
    5.000154   48.059508    5.190454   4 H
    5.000154   48.059491    7.724492   4 H
    5.000154   48.059487    9.495494   4 H
    5.000154   48.059745   12.030993   4 H
    5.000154   48.059708   43.934402   4 H
    5.000154   48.059443   46.469902   4 H
    5.000154   48.059441   48.240883   4 H
    5.000154   48.059452   50.774940   4 H
    5.000154   26.077754   13.627015   2 Cnar
    5.000154   26.073650   16.512768   2 Cnar
    5.000154   26.073379   17.927422   2 Cnar
    5.000154   26.073385   20.817970   2 Cnar
    5.000154   26.073365   22.232321   2 Cnar
    5.000154   26.073355   25.123041   2 Cnar
    5.000154   26.073348   26.537359   2 Cnar
    5.000154   26.073349   29.428101   2 Cnar
    5.000154   26.073351   30.842403   2 Cnar
    5.000154   26.073358   33.733116   2 Cnar
    5.000154   26.073368   35.147472   2 Cnar
    5.000154   26.073356   38.038025   2 Cnar
    5.000154   26.073630   39.452690   2 Cnar
    5.000154   26.077719   42.338448   2 Cnar
    5.000154   28.546206   13.631945   2 Cnar
    5.000154   27.305005   14.346605   2 Cnar
    5.000154   29.784100   14.351458   2 Cnar
    5.000154   27.307078   15.788244   2 Cnar
    5.000154   29.784112   15.783465   2 Cnar
    5.000154   31.022057   13.631933   2 Cnar
    5.000154   33.490504   13.626998   2 Cnar
    5.000154   32.263243   14.346597   2 Cnar
    5.000154   32.261160   15.788240   2 Cnar
    5.000154   28.545223   16.502403   2 Cnar
    5.000154   28.545214   17.937712   2 Cnar
    5.000154   27.307176   18.652472   2 Cnar
    5.000154   29.784105   18.657078   2 Cnar
    5.000154   27.307207   20.092758   2 Cnar
    5.000154   29.784103   20.088161   2 Cnar
    5.000154   28.545196   20.807560   2 Cnar
    5.000154   31.023028   16.502434   2 Cnar
    5.000154   33.494609   16.512753   2 Cnar
    5.000154   31.023032   17.937714   2 Cnar
    5.000154   33.494880   17.927408   2 Cnar
    5.000154   32.261066   18.652458   2 Cnar
    5.000154   32.261032   20.092754   2 Cnar
    5.000154   31.023036   20.807590   2 Cnar
    5.000154   33.494870   20.817970   2 Cnar
    5.000154   28.545205   22.242680   2 Cnar
    5.000154   27.307202   22.957571   2 Cnar
    5.000154   29.784092   22.962156   2 Cnar
    5.000154   27.307222   24.397745   2 Cnar
    5.000154   29.784094   24.393171   2 Cnar
    5.000154   28.545189   25.112644   2 Cnar
    5.000154   28.545193   26.547745   2 Cnar
    5.000154   27.307219   27.262621   2 Cnar
    5.000154   29.784090   27.267193   2 Cnar
    5.000154   31.023039   22.242682   2 Cnar
    5.000154   33.494880   22.232309   2 Cnar
    5.000154   32.261029   22.957575   2 Cnar
    5.000154   32.261008   24.397743   2 Cnar
    5.000154   31.023037   25.112604   2 Cnar
    5.000154   33.494890   25.123051   2 Cnar
    5.000154   31.023036   26.547777   2 Cnar
    5.000154   33.494889   26.537333   2 Cnar
    5.000154   32.261008   27.262617   2 Cnar
    5.000154   27.307212   28.702778   2 Cnar
    5.000154   29.784090   28.698191   2 Cnar
    5.000154   28.545194   29.417706   2 Cnar
    5.000154   28.545181   30.852825   2 Cnar
    5.000154   27.307212   31.567663   2 Cnar
    5.000154   29.784088   31.572231   2 Cnar
    5.000154   27.307192   33.007858   2 Cnar
    5.000154   29.784085   33.003273   2 Cnar
    5.000154   28.545183   33.722740   2 Cnar
    5.000154   32.261006   28.702766   2 Cnar
    5.000154   31.023033   29.417696   2 Cnar
    5.000154   33.494879   29.428097   2 Cnar
    5.000154   31.023030   30.852802   2 Cnar
    5.000154   33.494882   30.842384   2 Cnar
    5.000154   32.260994   31.567657   2 Cnar
    5.000154   32.261010   33.007858   2 Cnar
    5.000154   31.023021   33.722740   2 Cnar
    5.000154   33.494863   33.733116   2 Cnar
    5.000154   28.545181   35.157898   2 Cnar
    5.000154   27.307172   35.872688   2 Cnar
    5.000154   29.784085   35.877289   2 Cnar
    5.000154   27.307152   37.312981   2 Cnar
    5.000154   29.784075   37.308357   2 Cnar
    5.000154   28.545198   38.027725   2 Cnar
    5.000154   28.545197   39.463036   2 Cnar
    5.000154   31.023018   35.157867   2 Cnar
    5.000154   33.494846   35.147469   2 Cnar
    5.000154   32.261014   35.872681   2 Cnar
    5.000154   32.261048   37.312973   2 Cnar
    5.000154   31.023008   38.027718   2 Cnar
    5.000154   33.494855   38.038017   2 Cnar
    5.000154   31.023002   39.463013   2 Cnar
    5.000154   33.494578   39.452682   2 Cnar
    5.000154   27.307057   40.177200   2 Cnar
    5.000154   29.784077   40.181984   2 Cnar
    5.000154   27.304970   41.618835   2 Cnar
    5.000154   29.784067   41.613976   2 Cnar
    5.000154   28.546165   42.333496   2 Cnar
    5.000154   32.261132   40.177200   2 Cnar
    5.000154   32.263208   41.618828   2 Cnar
    5.000154   31.022021   42.333511   2 Cnar
    5.000154   33.490472   42.338432   2 Cnar
    5.001222   12.511327   53.120518   3 Celec
    5.001224   12.511391   54.501640   3 Celec
    5.001223   13.725525   52.379608   3 Celec
    5.001222   14.966450   53.095284   3 Celec
    5.001223   14.966568   54.526642   3 Celec
    5.001221   13.725640   55.242325   3 Celec
    5.001224   16.211569   52.374199   3 Celec
    5.001222   18.691344   52.375423   3 Celec
    5.001222   17.449983   53.095085   3 Celec
    5.001221   17.450003   54.527172   3 Celec
    5.001221   16.211609   55.247963   3 Celec
    5.001224   18.691371   55.246685   3 Celec
    5.001224   21.175759   52.375713   3 Celec
    5.001223   19.934248   53.095604   3 Celec
    5.001221   19.934219   54.526192   3 Celec
    5.001220   21.175767   55.246063   3 Celec
    5.001223   23.659646   52.375484   3 Celec
    5.001224   22.418140   53.095695   3 Celec
    5.001221   24.900655   53.095821   3 Celec
    5.001220   22.418135   54.526035   3 Celec
    5.001221   24.900666   54.526337   3 Celec
    5.001224   23.659506   55.246376   3 Celec
    5.001224   26.141501   52.375641   3 Celec
    5.001221   28.622670   52.375732   3 Celec
    5.001224   27.382050   53.096142   3 Celec
    5.001221   27.382015   54.526550   3 Celec
    5.001221   26.141470   55.246857   3 Celec
    5.001223   28.622647   55.246796   3 Celec
    5.001223   31.104366   52.375542   3 Celec
    5.001220   29.863450   53.095852   3 Celec
    5.001224   29.863360   54.526333   3 Celec
    5.001221   31.104409   55.246555   3 Celec
    5.001223   33.586719   52.375530   3 Celec
    5.001224   32.345553   53.095718   3 Celec
    5.001220   34.827794   53.095894   3 Celec
    5.001221   32.345548   54.526306   3 Celec
    5.001223   34.827905   54.526409   3 Celec
    5.001223   33.586730   55.246590   3 Celec
    5.001222   36.068701   52.375805   3 Celec
    5.001224   37.309681   53.096237   3 Celec
    5.001220   37.309747   54.526474   3 Celec
    5.001224   36.068716   55.246769   3 Celec
    5.001223   38.551522   52.376064   3 Celec
    5.001221   41.035748   52.375469   3 Celec
    5.001221   39.792760   53.095871   3 Celec
    5.001223   39.792737   54.526405   3 Celec
    5.001220   38.551588   55.246468   3 Celec
    5.001224   41.035729   55.246704   3 Celec
    5.001221   43.516495   52.374249   3 Celec
    5.001223   42.277586   53.094887   3 Celec
    5.001221   42.277532   54.527138   3 Celec
    5.001223   43.516466   55.247826   3 Celec
    5.001220   46.002953   52.379978   3 Celec
    5.001222   44.761918   53.095432   3 Celec
    5.001223   47.217284   53.120800   3 Celec
    5.001224   44.761924   54.526863   3 Celec
    5.001222   47.217326   54.501980   3 Celec
    5.001224   46.002912   55.242584   3 Celec
    5.001222   11.544314   52.601509   4 H
    5.001223   11.544525   55.021030   4 H
    5.001222   48.184437   52.601868   4 H
    5.001222   48.184349   55.021225   4 H
 %endblock AtomicCoordinatesAndAtomicSpecies
