%block AtomicCoordinatesAndAtomicSpecies
    0.500000    0.125000    0.055556
%endblock AtomicCoordinatesAndAtomicSpecies
