POSCAR(VASP)_with_position(SIESTA)
1.0
   10.060000    0.000000    0.000000
    0.000000   70.420006    0.000000
    0.000000    0.000000  128.592255
     C     H     C
   820   148   440
Cartesian
    5.030000   11.345789    0.717855 F F T # C
    5.030000   10.108439    1.432261 F F F # C
    5.030000   10.108439    2.861062 F F F # C
    5.030000   11.345789    3.575456 F F F # C
    5.030000   11.345789    5.004258 F F F # C
    5.030000   10.108439    5.718665 F F F # C
    5.030000   10.108439    7.147466 F F F # C
    5.030000   11.345789    7.861874 F F F # C
    5.030000   11.345789    9.290675 F F F # C
    5.030000   10.108439   10.005069 F F F # C
    5.030000   10.108439   11.433870 F F F # C
    5.030000   11.345789   12.148277 F F F # C
    5.030000   11.345789   13.577027 F F F # C
    5.030000   10.108439   14.291487 F F F # C
    5.030000   10.108439   15.720275 F F F # C
    5.030000   11.345789   16.434732 F F F # C
    5.030000   11.345789   17.863522 F F F # C
    5.030000   10.108439   18.577854 F F F # C
    5.030000   10.108439   20.006641 F F F # C
    5.030000   11.345789   20.721100 F F F # C
    5.030000   11.345789  107.878105 F F F # C
    5.030000   10.108439  108.592430 F F F # C
    5.030000   10.108439  110.021225 F F F # C
    5.030000   11.345789  110.735680 F F F # C
    5.030000   11.345789  112.164467 F F F # C
    5.030000   10.108439  112.878929 F F F # C
    5.030000   10.108439  114.307724 F F F # C
    5.030000   11.345789  115.022041 F F F # C
    5.030000   11.345789  116.450836 F F F # C
    5.030000   10.108439  117.165298 F F F # C
    5.030000   10.108439  118.594086 F F F # C
    5.030000   11.345789  119.308540 F F F # C
    5.030000   11.345789  120.737335 F F F # C
    5.030000   10.108439  121.451660 F F F # C
    5.030000   10.108439  122.880447 F F F # C
    5.030000   11.345789  123.594910 F F F # C
    5.030000   11.345789  125.023689 F F F # C
    5.030000   10.108439  125.738152 F F F # C
    5.030000   10.108439  127.166939 F F F # C
    5.030000   11.345789  127.881279 F F T # C
    5.030000   13.820560    0.717855 F F T # C
    5.030000   12.583139    1.432261 F F F # C
    5.030000   15.057909    1.432261 F F F # C
    5.030000   12.583139    2.861062 F F F # C
    5.030000   15.057909    2.861062 F F F # C
    5.030000   16.295328    0.717855 F F T # C
    5.030000   18.770100    0.717855 F F T # C
    5.030000   17.532679    1.432261 F F F # C
    5.030000   17.532679    2.861062 F F F # C
    5.030000   21.244799    0.717855 F F T # C
    5.030000   20.007450    1.432261 F F F # C
    5.030000   22.482220    1.432261 F F F # C
    5.030000   20.007450    2.861062 F F F # C
    5.030000   22.482220    2.861062 F F F # C
    5.030000   13.820560    3.575456 F F F # C
    5.030000   13.820560    5.004258 F F F # C
    5.030000   12.583139    5.718665 F F F # C
    5.030000   15.057909    5.718665 F F F # C
    5.030000   16.295328    3.575456 F F F # C
    5.030000   18.770100    3.575456 F F F # C
    5.030000   16.295328    5.004258 F F F # C
    5.030000   18.770100    5.004258 F F F # C
    5.030000   17.532679    5.718665 F F F # C
    5.030000   21.244799    3.575456 F F F # C
    5.030000   21.244799    5.004258 F F F # C
    5.030000   20.007450    5.718665 F F F # C
    5.030000   22.482220    5.718665 F F F # C
    5.030000   12.583139    7.147466 F F F # C
    5.030000   15.057909    7.147466 F F F # C
    5.030000   13.820560    7.861874 F F F # C
    5.030000   13.820560    9.290675 F F F # C
    5.030000   12.583139   10.005069 F F F # C
    5.030000   15.057909   10.005069 F F F # C
    5.030000   17.532679    7.147466 F F F # C
    5.030000   16.295328    7.861874 F F F # C
    5.030000   18.770100    7.861874 F F F # C
    5.030000   16.295328    9.290675 F F F # C
    5.030000   18.770100    9.290675 F F F # C
    5.030000   17.532679   10.005069 F F F # C
    5.030000   20.007450    7.147466 F F F # C
    5.030000   22.482220    7.147466 F F F # C
    5.030000   21.244799    7.861874 F F F # C
    5.030000   21.244799    9.290675 F F F # C
    5.030000   20.007450   10.005069 F F F # C
    5.030000   22.482220   10.005069 F F F # C
    5.030000   12.583139   11.433870 F F F # C
    5.030000   15.057909   11.433870 F F F # C
    5.030000   13.820560   12.148277 F F F # C
    5.030000   13.820560   13.577027 F F F # C
    5.030000   17.532679   11.433870 F F F # C
    5.030000   16.295328   12.148277 F F F # C
    5.030000   18.770100   12.148277 F F F # C
    5.030000   16.295328   13.577027 F F F # C
    5.030000   18.770100   13.577027 F F F # C
    5.030000   20.007450   11.433870 F F F # C
    5.030000   22.482220   11.433870 F F F # C
    5.030000   21.244799   12.148277 F F F # C
    5.030000   21.244799   13.577027 F F F # C
    5.030000   12.583139   14.291487 F F F # C
    5.030000   15.057909   14.291487 F F F # C
    5.030000   12.583139   15.720275 F F F # C
    5.030000   15.057909   15.720275 F F F # C
    5.030000   13.820560   16.434732 F F F # C
    5.030000   17.532679   14.291487 F F F # C
    5.030000   17.532679   15.720275 F F F # C
    5.030000   16.295328   16.434732 F F F # C
    5.030000   18.770100   16.434732 F F F # C
    5.030000   20.007450   14.291487 F F F # C
    5.030000   22.482220   14.291487 F F F # C
    5.030000   20.007450   15.720275 F F F # C
    5.030000   22.482220   15.720275 F F F # C
    5.030000   21.244799   16.434732 F F F # C
    5.030000   13.820560   17.863522 F F F # C
    5.030000   12.583139   18.577854 F F F # C
    5.030000   15.057909   18.577854 F F F # C
    5.030000   12.583139   20.006641 F F F # C
    5.030000   15.057909   20.006641 F F F # C
    5.030000   13.820560   20.721100 F F F # C
    5.030000   16.295328   17.863522 F F F # C
    5.030000   18.770100   17.863522 F F F # C
    5.030000   17.532679   18.577854 F F F # C
    5.030000   17.532679   20.006641 F F F # C
    5.030000   16.295328   20.721100 F F F # C
    5.030000   18.770100   20.721100 F F F # C
    5.030000   21.244799   17.863522 F F F # C
    5.030000   20.007450   18.577854 F F F # C
    5.030000   22.482220   18.577854 F F F # C
    5.030000   20.007450   20.006641 F F F # C
    5.030000   22.482220   20.006641 F F F # C
    5.030000   21.244799   20.721100 F F F # C
    5.030000   13.820560  107.878105 F F F # C
    5.030000   12.583139  108.592430 F F F # C
    5.030000   15.057909  108.592430 F F F # C
    5.030000   12.583139  110.021225 F F F # C
    5.030000   15.057909  110.021225 F F F # C
    5.030000   16.295328  107.878105 F F F # C
    5.030000   18.770100  107.878105 F F F # C
    5.030000   17.532679  108.592430 F F F # C
    5.030000   17.532679  110.021225 F F F # C
    5.030000   21.244799  107.878105 F F F # C
    5.030000   20.007450  108.592430 F F F # C
    5.030000   22.482220  108.592430 F F F # C
    5.030000   20.007450  110.021225 F F F # C
    5.030000   22.482220  110.021225 F F F # C
    5.030000   13.820560  110.735680 F F F # C
    5.030000   13.820560  112.164467 F F F # C
    5.030000   12.583139  112.878929 F F F # C
    5.030000   15.057909  112.878929 F F F # C
    5.030000   16.295328  110.735680 F F F # C
    5.030000   18.770100  110.735680 F F F # C
    5.030000   16.295328  112.164467 F F F # C
    5.030000   18.770100  112.164467 F F F # C
    5.030000   17.532679  112.878929 F F F # C
    5.030000   21.244799  110.735680 F F F # C
    5.030000   21.244799  112.164467 F F F # C
    5.030000   20.007450  112.878929 F F F # C
    5.030000   22.482220  112.878929 F F F # C
    5.030000   12.583139  114.307724 F F F # C
    5.030000   15.057909  114.307724 F F F # C
    5.030000   13.820560  115.022041 F F F # C
    5.030000   13.820560  116.450836 F F F # C
    5.030000   12.583139  117.165298 F F F # C
    5.030000   15.057909  117.165298 F F F # C
    5.030000   17.532679  114.307724 F F F # C
    5.030000   16.295328  115.022041 F F F # C
    5.030000   18.770100  115.022041 F F F # C
    5.030000   16.295328  116.450836 F F F # C
    5.030000   18.770100  116.450836 F F F # C
    5.030000   17.532679  117.165298 F F F # C
    5.030000   20.007450  114.307724 F F F # C
    5.030000   22.482220  114.307724 F F F # C
    5.030000   21.244799  115.022041 F F F # C
    5.030000   21.244799  116.450836 F F F # C
    5.030000   20.007450  117.165298 F F F # C
    5.030000   22.482220  117.165298 F F F # C
    5.030000   12.583139  118.594086 F F F # C
    5.030000   15.057909  118.594086 F F F # C
    5.030000   13.820560  119.308540 F F F # C
    5.030000   13.820560  120.737335 F F F # C
    5.030000   17.532679  118.594086 F F F # C
    5.030000   16.295328  119.308540 F F F # C
    5.030000   18.770100  119.308540 F F F # C
    5.030000   16.295328  120.737335 F F F # C
    5.030000   18.770100  120.737335 F F F # C
    5.030000   20.007450  118.594086 F F F # C
    5.030000   22.482220  118.594086 F F F # C
    5.030000   21.244799  119.308540 F F F # C
    5.030000   21.244799  120.737335 F F F # C
    5.030000   12.583139  121.451660 F F F # C
    5.030000   15.057909  121.451660 F F F # C
    5.030000   12.583139  122.880447 F F F # C
    5.030000   15.057909  122.880447 F F F # C
    5.030000   13.820560  123.594910 F F F # C
    5.030000   17.532679  121.451660 F F F # C
    5.030000   17.532679  122.880447 F F F # C
    5.030000   16.295328  123.594910 F F F # C
    5.030000   18.770100  123.594910 F F F # C
    5.030000   20.007450  121.451660 F F F # C
    5.030000   22.482220  121.451660 F F F # C
    5.030000   20.007450  122.880447 F F F # C
    5.030000   22.482220  122.880447 F F F # C
    5.030000   21.244799  123.594910 F F F # C
    5.030000   13.820560  125.023689 F F F # C
    5.030000   12.583139  125.738152 F F F # C
    5.030000   15.057909  125.738152 F F F # C
    5.030000   12.583139  127.166939 F F F # C
    5.030000   15.057909  127.166939 F F F # C
    5.030000   13.820560  127.881279 F F T # C
    5.030000   16.295328  125.023689 F F F # C
    5.030000   18.770100  125.023689 F F F # C
    5.030000   17.532679  125.738152 F F F # C
    5.030000   17.532679  127.166939 F F F # C
    5.030000   16.295328  127.881279 F F T # C
    5.030000   18.770100  127.881279 F F T # C
    5.030000   21.244799  125.023689 F F F # C
    5.030000   20.007450  125.738152 F F F # C
    5.030000   22.482220  125.738152 F F F # C
    5.030000   20.007450  127.166939 F F F # C
    5.030000   22.482220  127.166939 F F F # C
    5.030000   21.244799  127.881279 F F T # C
    5.030000   23.719570    0.717855 F F T # C
    5.030000   26.194340    0.717855 F F T # C
    5.030000   24.956989    1.432261 F F F # C
    5.030000   24.956989    2.861062 F F F # C
    5.030000   28.669109    0.717855 F F T # C
    5.030000   31.143883    0.717855 F F T # C
    5.030000   27.431692    1.432261 F F F # C
    5.030000   29.906460    1.432261 F F F # C
    5.030000   27.431692    2.861062 F F F # C
    5.030000   29.906460    2.861062 F F F # C
    5.030000   33.618652    0.717855 F F T # C
    5.030000   32.381229    1.432261 F F F # C
    5.030000   34.855999    1.432261 F F F # C
    5.030000   32.381229    2.861062 F F F # C
    5.030000   34.855999    2.861062 F F F # C
    5.030000   23.719570    3.575456 F F F # C
    5.030000   26.194340    3.575456 F F F # C
    5.030000   23.719570    5.004258 F F F # C
    5.030000   26.194340    5.004258 F F F # C
    5.030000   24.956989    5.718665 F F F # C
    5.030000   28.669109    3.575456 F F F # C
    5.030000   31.143883    3.575456 F F F # C
    5.030000   28.669109    5.004258 F F F # C
    5.030000   31.143883    5.004258 F F F # C
    5.030000   27.431692    5.718665 F F F # C
    5.030000   29.906460    5.718665 F F F # C
    5.030000   33.618652    3.575456 F F F # C
    5.030000   33.618652    5.004258 F F F # C
    5.030000   32.381229    5.718665 F F F # C
    5.030000   34.855999    5.718665 F F F # C
    5.030000   24.956989    7.147466 F F F # C
    5.030000   23.719570    7.861874 F F F # C
    5.030000   26.194340    7.861874 F F F # C
    5.030000   23.719570    9.290675 F F F # C
    5.030000   26.194340    9.290675 F F F # C
    5.030000   24.956989   10.005069 F F F # C
    5.030000   27.431692    7.147466 F F F # C
    5.030000   29.906460    7.147466 F F F # C
    5.030000   28.669109    7.861874 F F F # C
    5.030000   31.143883    7.861874 F F F # C
    5.030000   28.669109    9.290675 F F F # C
    5.030000   31.143883    9.290675 F F F # C
    5.030000   27.431692   10.005069 F F F # C
    5.030000   29.906460   10.005069 F F F # C
    5.030000   32.381229    7.147466 F F F # C
    5.030000   34.855999    7.147466 F F F # C
    5.030000   33.618652    7.861874 F F F # C
    5.030000   33.618652    9.290675 F F F # C
    5.030000   32.381229   10.005069 F F F # C
    5.030000   34.855999   10.005069 F F F # C
    5.030000   24.956989   11.433870 F F F # C
    5.030000   23.719570   12.148277 F F F # C
    5.030000   26.194340   12.148277 F F F # C
    5.030000   23.719570   13.577027 F F F # C
    5.030000   26.194340   13.577027 F F F # C
    5.030000   27.431692   11.433870 F F F # C
    5.030000   29.906460   11.433870 F F F # C
    5.030000   28.669109   12.148277 F F F # C
    5.030000   31.143883   12.148277 F F F # C
    5.030000   28.669109   13.577027 F F F # C
    5.030000   31.143883   13.577027 F F F # C
    5.030000   32.381229   11.433870 F F F # C
    5.030000   34.855999   11.433870 F F F # C
    5.030000   33.618652   12.148277 F F F # C
    5.030000   33.618652   13.577027 F F F # C
    5.030000   24.956989   14.291487 F F F # C
    5.030000   24.956989   15.720275 F F F # C
    5.030000   23.719570   16.434732 F F F # C
    5.030000   26.194340   16.434732 F F F # C
    5.030000   27.431692   14.291487 F F F # C
    5.030000   29.906460   14.291487 F F F # C
    5.030000   27.431692   15.720275 F F F # C
    5.030000   29.906460   15.720275 F F F # C
    5.030000   28.669109   16.434732 F F F # C
    5.030000   31.143883   16.434732 F F F # C
    5.030000   32.381229   14.291487 F F F # C
    5.030000   34.855999   14.291487 F F F # C
    5.030000   32.381229   15.720275 F F F # C
    5.030000   34.855999   15.720275 F F F # C
    5.030000   33.618652   16.434732 F F F # C
    5.030000   23.719570   17.863522 F F F # C
    5.030000   26.194340   17.863522 F F F # C
    5.030000   24.956989   18.577854 F F F # C
    5.030000   24.956989   20.006641 F F F # C
    5.030000   23.719570   20.721100 F F F # C
    5.030000   26.194340   20.721100 F F F # C
    5.030000   28.669109   17.863522 F F F # C
    5.030000   31.143883   17.863522 F F F # C
    5.030000   27.431692   18.577854 F F F # C
    5.030000   29.906460   18.577854 F F F # C
    5.030000   27.431692   20.006641 F F F # C
    5.030000   29.906460   20.006641 F F F # C
    5.030000   28.669109   20.721100 F F F # C
    5.030000   31.143883   20.721100 F F F # C
    5.030000   33.618652   17.863522 F F F # C
    5.030000   32.381229   18.577854 F F F # C
    5.030000   34.855999   18.577854 F F F # C
    5.030000   32.381229   20.006641 F F F # C
    5.030000   34.855999   20.006641 F F F # C
    5.030000   33.618652   20.721100 F F F # C
    5.030000   23.719570  107.878105 F F F # C
    5.030000   26.194340  107.878105 F F F # C
    5.030000   24.956989  108.592430 F F F # C
    5.030000   24.956989  110.021225 F F F # C
    5.030000   28.669109  107.878105 F F F # C
    5.030000   31.143883  107.878105 F F F # C
    5.030000   27.431692  108.592430 F F F # C
    5.030000   29.906460  108.592430 F F F # C
    5.030000   27.431692  110.021225 F F F # C
    5.030000   29.906460  110.021225 F F F # C
    5.030000   33.618652  107.878105 F F F # C
    5.030000   32.381229  108.592430 F F F # C
    5.030000   34.855999  108.592430 F F F # C
    5.030000   32.381229  110.021225 F F F # C
    5.030000   34.855999  110.021225 F F F # C
    5.030000   23.719570  110.735680 F F F # C
    5.030000   26.194340  110.735680 F F F # C
    5.030000   23.719570  112.164467 F F F # C
    5.030000   26.194340  112.164467 F F F # C
    5.030000   24.956989  112.878929 F F F # C
    5.030000   28.669109  110.735680 F F F # C
    5.030000   31.143883  110.735680 F F F # C
    5.030000   28.669109  112.164467 F F F # C
    5.030000   31.143883  112.164467 F F F # C
    5.030000   27.431692  112.878929 F F F # C
    5.030000   29.906460  112.878929 F F F # C
    5.030000   33.618652  110.735680 F F F # C
    5.030000   33.618652  112.164467 F F F # C
    5.030000   32.381229  112.878929 F F F # C
    5.030000   34.855999  112.878929 F F F # C
    5.030000   24.956989  114.307724 F F F # C
    5.030000   23.719570  115.022041 F F F # C
    5.030000   26.194340  115.022041 F F F # C
    5.030000   23.719570  116.450836 F F F # C
    5.030000   26.194340  116.450836 F F F # C
    5.030000   24.956989  117.165298 F F F # C
    5.030000   27.431692  114.307724 F F F # C
    5.030000   29.906460  114.307724 F F F # C
    5.030000   28.669109  115.022041 F F F # C
    5.030000   31.143883  115.022041 F F F # C
    5.030000   28.669109  116.450836 F F F # C
    5.030000   31.143883  116.450836 F F F # C
    5.030000   27.431692  117.165298 F F F # C
    5.030000   29.906460  117.165298 F F F # C
    5.030000   32.381229  114.307724 F F F # C
    5.030000   34.855999  114.307724 F F F # C
    5.030000   33.618652  115.022041 F F F # C
    5.030000   33.618652  116.450836 F F F # C
    5.030000   32.381229  117.165298 F F F # C
    5.030000   34.855999  117.165298 F F F # C
    5.030000   24.956989  118.594086 F F F # C
    5.030000   23.719570  119.308540 F F F # C
    5.030000   26.194340  119.308540 F F F # C
    5.030000   23.719570  120.737335 F F F # C
    5.030000   26.194340  120.737335 F F F # C
    5.030000   27.431692  118.594086 F F F # C
    5.030000   29.906460  118.594086 F F F # C
    5.030000   28.669109  119.308540 F F F # C
    5.030000   31.143883  119.308540 F F F # C
    5.030000   28.669109  120.737335 F F F # C
    5.030000   31.143883  120.737335 F F F # C
    5.030000   32.381229  118.594086 F F F # C
    5.030000   34.855999  118.594086 F F F # C
    5.030000   33.618652  119.308540 F F F # C
    5.030000   33.618652  120.737335 F F F # C
    5.030000   24.956989  121.451660 F F F # C
    5.030000   24.956989  122.880447 F F F # C
    5.030000   23.719570  123.594910 F F F # C
    5.030000   26.194340  123.594910 F F F # C
    5.030000   27.431692  121.451660 F F F # C
    5.030000   29.906460  121.451660 F F F # C
    5.030000   27.431692  122.880447 F F F # C
    5.030000   29.906460  122.880447 F F F # C
    5.030000   28.669109  123.594910 F F F # C
    5.030000   31.143883  123.594910 F F F # C
    5.030000   32.381229  121.451660 F F F # C
    5.030000   34.855999  121.451660 F F F # C
    5.030000   32.381229  122.880447 F F F # C
    5.030000   34.855999  122.880447 F F F # C
    5.030000   33.618652  123.594910 F F F # C
    5.030000   23.719570  125.023689 F F F # C
    5.030000   26.194340  125.023689 F F F # C
    5.030000   24.956989  125.738152 F F F # C
    5.030000   24.956989  127.166939 F F F # C
    5.030000   23.719570  127.881279 F F T # C
    5.030000   26.194340  127.881279 F F T # C
    5.030000   28.669109  125.023689 F F F # C
    5.030000   31.143883  125.023689 F F F # C
    5.030000   27.431692  125.738152 F F F # C
    5.030000   29.906460  125.738152 F F F # C
    5.030000   27.431692  127.166939 F F F # C
    5.030000   29.906460  127.166939 F F F # C
    5.030000   28.669109  127.881279 F F T # C
    5.030000   31.143883  127.881279 F F T # C
    5.030000   33.618652  125.023689 F F F # C
    5.030000   32.381229  125.738152 F F F # C
    5.030000   34.855999  125.738152 F F F # C
    5.030000   32.381229  127.166939 F F F # C
    5.030000   34.855999  127.166939 F F F # C
    5.030000   33.618652  127.881279 F F T # C
    5.030000   36.093349    0.717855 F F T # C
    5.030000   38.568119    0.717855 F F T # C
    5.030000   37.330769    1.432261 F F F # C
    5.030000   37.330769    2.861062 F F F # C
    5.030000   41.042889    0.717855 F F T # C
    5.030000   39.805542    1.432261 F F F # C
    5.030000   42.280312    1.432261 F F F # C
    5.030000   39.805542    2.861062 F F F # C
    5.030000   42.280312    2.861062 F F F # C
    5.030000   43.517666    0.717855 F F T # C
    5.030000   45.992432    0.717855 F F T # C
    5.030000   44.755009    1.432261 F F F # C
    5.030000   44.755009    2.861062 F F F # C
    5.030000   36.093349    3.575456 F F F # C
    5.030000   38.568119    3.575456 F F F # C
    5.030000   36.093349    5.004258 F F F # C
    5.030000   38.568119    5.004258 F F F # C
    5.030000   37.330769    5.718665 F F F # C
    5.030000   41.042889    3.575456 F F F # C
    5.030000   41.042889    5.004258 F F F # C
    5.030000   39.805542    5.718665 F F F # C
    5.030000   42.280312    5.718665 F F F # C
    5.030000   43.517666    3.575456 F F F # C
    5.030000   45.992432    3.575456 F F F # C
    5.030000   43.517666    5.004258 F F F # C
    5.030000   45.992432    5.004258 F F F # C
    5.030000   44.755009    5.718665 F F F # C
    5.030000   37.330769    7.147466 F F F # C
    5.030000   36.093349    7.861874 F F F # C
    5.030000   38.568119    7.861874 F F F # C
    5.030000   36.093349    9.290675 F F F # C
    5.030000   38.568119    9.290675 F F F # C
    5.030000   37.330769   10.005069 F F F # C
    5.030000   39.805542    7.147466 F F F # C
    5.030000   42.280312    7.147466 F F F # C
    5.030000   41.042889    7.861874 F F F # C
    5.030000   41.042889    9.290675 F F F # C
    5.030000   39.805542   10.005069 F F F # C
    5.030000   42.280312   10.005069 F F F # C
    5.030000   44.755009    7.147466 F F F # C
    5.030000   43.517666    7.861874 F F F # C
    5.030000   45.992432    7.861874 F F F # C
    5.030000   43.517666    9.290675 F F F # C
    5.030000   45.992432    9.290675 F F F # C
    5.030000   44.755009   10.005069 F F F # C
    5.030000   37.330769   11.433870 F F F # C
    5.030000   36.093349   12.148277 F F F # C
    5.030000   38.568119   12.148277 F F F # C
    5.030000   36.093349   13.577027 F F F # C
    5.030000   38.568119   13.577027 F F F # C
    5.030000   39.805542   11.433870 F F F # C
    5.030000   42.280312   11.433870 F F F # C
    5.030000   41.042889   12.148277 F F F # C
    5.030000   41.042889   13.577027 F F F # C
    5.030000   44.755009   11.433870 F F F # C
    5.030000   43.517666   12.148277 F F F # C
    5.030000   45.992432   12.148277 F F F # C
    5.030000   43.517666   13.577027 F F F # C
    5.030000   45.992432   13.577027 F F F # C
    5.030000   37.330769   14.291487 F F F # C
    5.030000   37.330769   15.720275 F F F # C
    5.030000   36.093349   16.434732 F F F # C
    5.030000   38.568119   16.434732 F F F # C
    5.030000   39.805542   14.291487 F F F # C
    5.030000   42.280312   14.291487 F F F # C
    5.030000   39.805542   15.720275 F F F # C
    5.030000   42.280312   15.720275 F F F # C
    5.030000   41.042889   16.434732 F F F # C
    5.030000   44.755009   14.291487 F F F # C
    5.030000   44.755009   15.720275 F F F # C
    5.030000   43.517666   16.434732 F F F # C
    5.030000   45.992432   16.434732 F F F # C
    5.030000   36.093349   17.863522 F F F # C
    5.030000   38.568119   17.863522 F F F # C
    5.030000   37.330769   18.577854 F F F # C
    5.030000   37.330769   20.006641 F F F # C
    5.030000   36.093349   20.721100 F F F # C
    5.030000   38.568119   20.721100 F F F # C
    5.030000   41.042889   17.863522 F F F # C
    5.030000   39.805542   18.577854 F F F # C
    5.030000   42.280312   18.577854 F F F # C
    5.030000   39.805542   20.006641 F F F # C
    5.030000   42.280312   20.006641 F F F # C
    5.030000   41.042889   20.721100 F F F # C
    5.030000   43.517666   17.863522 F F F # C
    5.030000   45.992432   17.863522 F F F # C
    5.030000   44.755009   18.577854 F F F # C
    5.030000   44.755009   20.006641 F F F # C
    5.030000   43.517666   20.721100 F F F # C
    5.030000   45.992432   20.721100 F F F # C
    5.030000   36.093349  107.878105 F F F # C
    5.030000   38.568119  107.878105 F F F # C
    5.030000   37.330769  108.592430 F F F # C
    5.030000   37.330769  110.021225 F F F # C
    5.030000   41.042889  107.878105 F F F # C
    5.030000   39.805542  108.592430 F F F # C
    5.030000   42.280312  108.592430 F F F # C
    5.030000   39.805542  110.021225 F F F # C
    5.030000   42.280312  110.021225 F F F # C
    5.030000   43.517666  107.878105 F F F # C
    5.030000   45.992432  107.878105 F F F # C
    5.030000   44.755009  108.592430 F F F # C
    5.030000   44.755009  110.021225 F F F # C
    5.030000   36.093349  110.735680 F F F # C
    5.030000   38.568119  110.735680 F F F # C
    5.030000   36.093349  112.164467 F F F # C
    5.030000   38.568119  112.164467 F F F # C
    5.030000   37.330769  112.878929 F F F # C
    5.030000   41.042889  110.735680 F F F # C
    5.030000   41.042889  112.164467 F F F # C
    5.030000   39.805542  112.878929 F F F # C
    5.030000   42.280312  112.878929 F F F # C
    5.030000   43.517666  110.735680 F F F # C
    5.030000   45.992432  110.735680 F F F # C
    5.030000   43.517666  112.164467 F F F # C
    5.030000   45.992432  112.164467 F F F # C
    5.030000   44.755009  112.878929 F F F # C
    5.030000   37.330769  114.307724 F F F # C
    5.030000   36.093349  115.022041 F F F # C
    5.030000   38.568119  115.022041 F F F # C
    5.030000   36.093349  116.450836 F F F # C
    5.030000   38.568119  116.450836 F F F # C
    5.030000   37.330769  117.165298 F F F # C
    5.030000   39.805542  114.307724 F F F # C
    5.030000   42.280312  114.307724 F F F # C
    5.030000   41.042889  115.022041 F F F # C
    5.030000   41.042889  116.450836 F F F # C
    5.030000   39.805542  117.165298 F F F # C
    5.030000   42.280312  117.165298 F F F # C
    5.030000   44.755009  114.307724 F F F # C
    5.030000   43.517666  115.022041 F F F # C
    5.030000   45.992432  115.022041 F F F # C
    5.030000   43.517666  116.450836 F F F # C
    5.030000   45.992432  116.450836 F F F # C
    5.030000   44.755009  117.165298 F F F # C
    5.030000   37.330769  118.594086 F F F # C
    5.030000   36.093349  119.308540 F F F # C
    5.030000   38.568119  119.308540 F F F # C
    5.030000   36.093349  120.737335 F F F # C
    5.030000   38.568119  120.737335 F F F # C
    5.030000   39.805542  118.594086 F F F # C
    5.030000   42.280312  118.594086 F F F # C
    5.030000   41.042889  119.308540 F F F # C
    5.030000   41.042889  120.737335 F F F # C
    5.030000   44.755009  118.594086 F F F # C
    5.030000   43.517666  119.308540 F F F # C
    5.030000   45.992432  119.308540 F F F # C
    5.030000   43.517666  120.737335 F F F # C
    5.030000   45.992432  120.737335 F F F # C
    5.030000   37.330769  121.451660 F F F # C
    5.030000   37.330769  122.880447 F F F # C
    5.030000   36.093349  123.594910 F F F # C
    5.030000   38.568119  123.594910 F F F # C
    5.030000   39.805542  121.451660 F F F # C
    5.030000   42.280312  121.451660 F F F # C
    5.030000   39.805542  122.880447 F F F # C
    5.030000   42.280312  122.880447 F F F # C
    5.030000   41.042889  123.594910 F F F # C
    5.030000   44.755009  121.451660 F F F # C
    5.030000   44.755009  122.880447 F F F # C
    5.030000   43.517666  123.594910 F F F # C
    5.030000   45.992432  123.594910 F F F # C
    5.030000   36.093349  125.023689 F F F # C
    5.030000   38.568119  125.023689 F F F # C
    5.030000   37.330769  125.738152 F F F # C
    5.030000   37.330769  127.166939 F F F # C
    5.030000   36.093349  127.881279 F F T # C
    5.030000   38.568119  127.881279 F F T # C
    5.030000   41.042889  125.023689 F F F # C
    5.030000   39.805542  125.738152 F F F # C
    5.030000   42.280312  125.738152 F F F # C
    5.030000   39.805542  127.166939 F F F # C
    5.030000   42.280312  127.166939 F F F # C
    5.030000   41.042889  127.881279 F F T # C
    5.030000   43.517666  125.023689 F F F # C
    5.030000   45.992432  125.023689 F F F # C
    5.030000   44.755009  125.738152 F F F # C
    5.030000   44.755009  127.166939 F F F # C
    5.030000   43.517666  127.881279 F F T # C
    5.030000   45.992432  127.881279 F F T # C
    5.030000   48.467201    0.717855 F F T # C
    5.030000   47.229778    1.432261 F F F # C
    5.030000   49.704552    1.432261 F F F # C
    5.030000   47.229778    2.861062 F F F # C
    5.030000   49.704552    2.861062 F F F # C
    5.030000   50.941898    0.717855 F F T # C
    5.030000   53.416676    0.717855 F F T # C
    5.030000   52.179321    1.432261 F F F # C
    5.030000   54.654091    1.432261 F F F # C
    5.030000   52.179321    2.861062 F F F # C
    5.030000   54.654091    2.861062 F F F # C
    5.030000   55.891441    0.717855 F F T # C
    5.030000   58.366211    0.717855 F F T # C
    5.030000   57.128860    1.432261 F F F # C
    5.030000   57.128860    2.861062 F F F # C
    5.030000   48.467201    3.575456 F F F # C
    5.030000   48.467201    5.004258 F F F # C
    5.030000   47.229778    5.718665 F F F # C
    5.030000   49.704552    5.718665 F F F # C
    5.030000   50.941898    3.575456 F F F # C
    5.030000   53.416676    3.575456 F F F # C
    5.030000   50.941898    5.004258 F F F # C
    5.030000   53.416676    5.004258 F F F # C
    5.030000   52.179321    5.718665 F F F # C
    5.030000   54.654091    5.718665 F F F # C
    5.030000   55.891441    3.575456 F F F # C
    5.030000   58.366211    3.575456 F F F # C
    5.030000   55.891441    5.004258 F F F # C
    5.030000   58.366211    5.004258 F F F # C
    5.030000   57.128860    5.718665 F F F # C
    5.030000   47.229778    7.147466 F F F # C
    5.030000   49.704552    7.147466 F F F # C
    5.030000   48.467201    7.861874 F F F # C
    5.030000   48.467201    9.290675 F F F # C