System = test_1.10
PREC = Low
LREAL = Auto
EDIFF = 0.1
EDIFFG = -0.1
ISTART = 1
ICHARG = 1
ISYM = 2
LWAVE = .TRUE.
LCHARG = .TRUE.
ISMEAR = 1
NSIM = 4
ENCUT = 350
IBRION = 2
ISIF = 4
NSW = 25
NELM = 120
ISPIN = 2
LORBIT = 11
IALGO = 48
