POSCAR(VASP)_with_position(SIESTA)
1.0
   10.000000    0.000000    0.000000
    0.000000   60.000000    0.000000
    0.000000    0.000000  127.828697
     C     H     C
   580   136   440
Selective dynamics
Cartesian
    5.000000   12.383040    1.423718 T F T # C
    5.000000   12.383040    2.843998 T F T # C
    5.000000   13.613040    0.713573 T F T # C
    5.000000   16.073040    0.713573 T F T # C
    5.000000   14.843040    1.423718 T F T # C
    5.000000   14.843040    2.843998 T F T # C
    5.000000   18.533039    0.713573 T F T # C
    5.000000   17.303040    1.423718 T F T # C
    5.000000   19.763041    1.423718 T F T # C
    5.000000   17.303040    2.843998 T F T # C
    5.000000   19.763041    2.843998 T F T # C
    5.000000   12.383040    5.684557 T F T # C
    5.000000   13.613040    3.554132 T F T # C
    5.000000   16.073040    3.554132 T F T # C
    5.000000   13.613040    4.974411 T F T # C
    5.000000   16.073040    4.974411 T F T # C
    5.000000   14.843040    5.684557 T F T # C
    5.000000   18.533039    3.554132 T F T # C
    5.000000   18.533039    4.974411 T F T # C
    5.000000   17.303040    5.684557 T F T # C
    5.000000   19.763041    5.684557 T F T # C
    5.000000   12.383040    7.104837 T F T # C
    5.000000   12.383040    9.945396 T F T # C
    5.000000   14.843040    7.104837 T F T # C
    5.000000   13.613040    7.814983 T F T # C
    5.000000   16.073040    7.814983 T F T # C
    5.000000   13.613040    9.235263 T F T # C
    5.000000   16.073040    9.235263 T F T # C
    5.000000   14.843040    9.945396 T F T # C
    5.000000   17.303040    7.104837 T F T # C
    5.000000   19.763041    7.104837 T F T # C
    5.000000   18.533039    7.814983 T F T # C
    5.000000   18.533039    9.235263 T F T # C
    5.000000   17.303040    9.945396 T F T # C
    5.000000   19.763041    9.945396 T F T # C
    5.000000   12.383040   11.365676 T F T # C
    5.000000   14.843040   11.365676 T F T # C
    5.000000   13.613040   12.075822 T F T # C
    5.000000   16.073040   12.075822 T F T # C
    5.000000   13.613040   13.496051 T F T # C
    5.000000   16.073040   13.496051 T F T # C
    5.000000   17.303040   11.365676 T F T # C
    5.000000   19.763041   11.365676 T F T # C
    5.000000   18.533039   12.075822 T F T # C
    5.000000   18.533039   13.496051 T F T # C
    5.000000   12.383040   14.206248 T F T # C
    5.000000   12.383040   15.626515 T F T # C
    5.000000   14.843040   14.206248 T F T # C
    5.000000   14.843040   15.626515 T F T # C
    5.000000   13.613040   16.336712 T F T # C
    5.000000   16.073040   16.336712 T F T # C
    5.000000   17.303040   14.206248 T F T # C
    5.000000   19.763041   14.206248 T F T # C
    5.000000   17.303040   15.626515 T F T # C
    5.000000   19.763041   15.626515 T F T # C
    5.000000   18.533039   16.336712 T F T # C
    5.000000   12.383040   18.467051 T F T # C
    5.000000   12.383040   19.887316 T F T # C
    5.000000   13.613040   17.756979 T F T # C
    5.000000   16.073040   17.756979 T F T # C
    5.000000   14.843040   18.467051 T F T # C
    5.000000   14.843040   19.887316 T F T # C
    5.000000   13.613040   20.597513 T F T # C
    5.000000   16.073040   20.597513 T F T # C
    5.000000   18.533039   17.756979 T F T # C
    5.000000   17.303040   18.467051 T F T # C
    5.000000   19.763041   18.467051 T F T # C
    5.000000   17.303040   19.887316 T F T # C
    5.000000   19.763041   19.887316 T F T # C
    5.000000   18.533039   20.597513 T F T # C
    5.000000   12.383040  107.944756 T F T # C
    5.000000   12.383040  109.365028 T F T # C
    5.000000   13.613040  107.234695 T F T # C
    5.000000   16.073040  107.234695 T F T # C
    5.000000   14.843040  107.944756 T F T # C
    5.000000   14.843040  109.365028 T F T # C
    5.000000   18.533039  107.234695 T F T # C
    5.000000   17.303040  107.944756 T F T # C
    5.000000   19.763041  107.944756 T F T # C
    5.000000   17.303040  109.365028 T F T # C
    5.000000   19.763041  109.365028 T F T # C
    5.000000   12.383040  112.205688 T F T # C
    5.000000   13.613040  110.075226 T F T # C
    5.000000   16.073040  110.075226 T F T # C
    5.000000   13.613040  111.495491 T F T # C
    5.000000   16.073040  111.495491 T F T # C
    5.000000   14.843040  112.205688 T F T # C
    5.000000   18.533039  110.075226 T F T # C
    5.000000   18.533039  111.495491 T F T # C
    5.000000   17.303040  112.205688 T F T # C
    5.000000   19.763041  112.205688 T F T # C
    5.000000   12.383040  113.625961 T F T # C
    5.000000   12.383040  116.466492 T F T # C
    5.000000   14.843040  113.625961 T F T # C
    5.000000   13.613040  114.336021 T F T # C
    5.000000   16.073040  114.336021 T F T # C
    5.000000   13.613040  115.756294 T F T # C
    5.000000   16.073040  115.756294 T F T # C
    5.000000   14.843040  116.466492 T F T # C
    5.000000   17.303040  113.625961 T F T # C
    5.000000   19.763041  113.625961 T F T # C
    5.000000   18.533039  114.336021 T F T # C
    5.000000   18.533039  115.756294 T F T # C
    5.000000   17.303040  116.466492 T F T # C
    5.000000   19.763041  116.466492 T F T # C
    5.000000   12.383040  117.886757 T F T # C
    5.000000   14.843040  117.886757 T F T # C
    5.000000   13.613040  118.596954 T F T # C
    5.000000   16.073040  118.596954 T F T # C
    5.000000   13.613040  120.017227 T F T # C
    5.000000   16.073040  120.017227 T F T # C
    5.000000   17.303040  117.886757 T F T # C
    5.000000   19.763041  117.886757 T F T # C
    5.000000   18.533039  118.596954 T F T # C
    5.000000   18.533039  120.017227 T F T # C
    5.000000   12.383040  120.727295 T F T # C
    5.000000   12.383040  122.147560 T F T # C
    5.000000   14.843040  120.727295 T F T # C
    5.000000   14.843040  122.147560 T F T # C
    5.000000   13.613040  122.857758 T F T # C
    5.000000   16.073040  122.857758 T F T # C
    5.000000   17.303040  120.727295 T F T # C
    5.000000   19.763041  120.727295 T F T # C
    5.000000   17.303040  122.147560 T F T # C
    5.000000   19.763041  122.147560 T F T # C
    5.000000   18.533039  122.857758 T F T # C
    5.000000   12.383040  124.988220 T F T # C
    5.000000   12.383040  126.408485 T F T # C
    5.000000   13.613040  124.278015 T F T # C
    5.000000   16.073040  124.278015 T F T # C
    5.000000   14.843040  124.988220 T F T # C
    5.000000   14.843040  126.408485 T F T # C
    5.000000   13.613040  127.118561 T F T # C
    5.000000   16.073040  127.118561 T F T # C
    5.000000   18.533039  124.278015 T F T # C
    5.000000   17.303040  124.988220 T F T # C
    5.000000   19.763041  124.988220 T F T # C
    5.000000   17.303040  126.408485 T F T # C
    5.000000   19.763041  126.408485 T F T # C
    5.000000   18.533039  127.118561 T F T # C
    5.000000   20.993040    0.713573 T F T # C
    5.000000   22.223040    1.423718 T F T # C
    5.000000   22.223040    2.843998 T F T # C
    5.000000   23.453041    0.713573 T F T # C
    5.000000   25.913040    0.713573 T F T # C
    5.000000   24.683039    1.423718 T F T # C
    5.000000   24.683039    2.843998 T F T # C
    5.000000   28.373039    0.713573 T F T # C
    5.000000   27.143040    1.423718 T F T # C
    5.000000   29.603041    1.423718 T F T # C
    5.000000   27.143040    2.843998 T F T # C
    5.000000   29.603041    2.843998 T F T # C
    5.000000   20.993040    3.554132 T F T # C
    5.000000   20.993040    4.974411 T F T # C
    5.000000   22.223040    5.684557 T F T # C
    5.000000   23.453041    3.554132 T F T # C
    5.000000   25.913040    3.554132 T F T # C
    5.000000   23.453041    4.974411 T F T # C
    5.000000   25.913040    4.974411 T F T # C
    5.000000   24.683039    5.684557 T F T # C
    5.000000   28.373039    3.554132 T F T # C
    5.000000   28.373039    4.974411 T F T # C
    5.000000   27.143040    5.684557 T F T # C
    5.000000   29.603041    5.684557 T F T # C
    5.000000   22.223040    7.104837 T F T # C
    5.000000   20.993040    7.814983 T F T # C
    5.000000   20.993040    9.235263 T F T # C
    5.000000   22.223040    9.945396 T F T # C
    5.000000   24.683039    7.104837 T F T # C
    5.000000   23.453041    7.814983 T F T # C
    5.000000   25.913040    7.814983 T F T # C
    5.000000   23.453041    9.235263 T F T # C
    5.000000   25.913040    9.235263 T F T # C
    5.000000   24.683039    9.945396 T F T # C
    5.000000   27.143040    7.104837 T F T # C
    5.000000   29.603041    7.104837 T F T # C
    5.000000   28.373039    7.814983 T F T # C
    5.000000   28.373039    9.235263 T F T # C
    5.000000   27.143040    9.945396 T F T # C
    5.000000   29.603041    9.945396 T F T # C
    5.000000   22.223040   11.365676 T F T # C
    5.000000   20.993040   12.075822 T F T # C
    5.000000   20.993040   13.496051 T F T # C
    5.000000   24.683039   11.365676 T F T # C
    5.000000   23.453041   12.075822 T F T # C
    5.000000   25.913040   12.075822 T F T # C
    5.000000   23.453041   13.496051 T F T # C
    5.000000   25.913040   13.496051 T F T # C
    5.000000   27.143040   11.365676 T F T # C
    5.000000   29.603041   11.365676 T F T # C
    5.000000   28.373039   12.075822 T F T # C
    5.000000   28.373039   13.496051 T F T # C
    5.000000   22.223040   14.206248 T F T # C
    5.000000   22.223040   15.626515 T F T # C
    5.000000   20.993040   16.336712 T F T # C
    5.000000   24.683039   14.206248 T F T # C
    5.000000   24.683039   15.626515 T F T # C
    5.000000   23.453041   16.336712 T F T # C
    5.000000   25.913040   16.336712 T F T # C
    5.000000   27.143040   14.206248 T F T # C
    5.000000   29.603041   14.206248 T F T # C
    5.000000   27.143040   15.626515 T F T # C
    5.000000   29.603041   15.626515 T F T # C
    5.000000   28.373039   16.336712 T F T # C
    5.000000   20.993040   17.756979 T F T # C
    5.000000   22.223040   18.467051 T F T # C
    5.000000   22.223040   19.887316 T F T # C
    5.000000   20.993040   20.597513 T F T # C
    5.000000   23.453041   17.756979 T F T # C
    5.000000   25.913040   17.756979 T F T # C
    5.000000   24.683039   18.467051 T F T # C
    5.000000   24.683039   19.887316 T F T # C
    5.000000   23.453041   20.597513 T F T # C
    5.000000   25.913040   20.597513 T F T # C
    5.000000   28.373039   17.756979 T F T # C
    5.000000   27.143040   18.467051 T F T # C
    5.000000   29.603041   18.467051 T F T # C
    5.000000   27.143040   19.887316 T F T # C
    5.000000   29.603041   19.887316 T F T # C
    5.000000   28.373039   20.597513 T F T # C
    5.000000   20.993040  107.234695 T F T # C
    5.000000   22.223040  107.944756 T F T # C
    5.000000   22.223040  109.365028 T F T # C
    5.000000   23.453041  107.234695 T F T # C
    5.000000   25.913040  107.234695 T F T # C
    5.000000   24.683039  107.944756 T F T # C
    5.000000   24.683039  109.365028 T F T # C
    5.000000   28.373039  107.234695 T F T # C
    5.000000   27.143040  107.944756 T F T # C
    5.000000   29.603041  107.944756 T F T # C
    5.000000   27.143040  109.365028 T F T # C
    5.000000   29.603041  109.365028 T F T # C
    5.000000   20.993040  110.075226 T F T # C
    5.000000   20.993040  111.495491 T F T # C
    5.000000   22.223040  112.205688 T F T # C
    5.000000   23.453041  110.075226 T F T # C
    5.000000   25.913040  110.075226 T F T # C
    5.000000   23.453041  111.495491 T F T # C
    5.000000   25.913040  111.495491 T F T # C
    5.000000   24.683039  112.205688 T F T # C
    5.000000   28.373039  110.075226 T F T # C
    5.000000   28.373039  111.495491 T F T # C
    5.000000   27.143040  112.205688 T F T # C
    5.000000   29.603041  112.205688 T F T # C
    5.000000   22.223040  113.625961 T F T # C
    5.000000   20.993040  114.336021 T F T # C
    5.000000   20.993040  115.756294 T F T # C
    5.000000   22.223040  116.466492 T F T # C
    5.000000   24.683039  113.625961 T F T # C
    5.000000   23.453041  114.336021 T F T # C
    5.000000   25.913040  114.336021 T F T # C
    5.000000   23.453041  115.756294 T F T # C
    5.000000   25.913040  115.756294 T F T # C
    5.000000   24.683039  116.466492 T F T # C
    5.000000   27.143040  113.625961 T F T # C
    5.000000   29.603041  113.625961 T F T # C
    5.000000   28.373039  114.336021 T F T # C
    5.000000   28.373039  115.756294 T F T # C
    5.000000   27.143040  116.466492 T F T # C
    5.000000   29.603041  116.466492 T F T # C
    5.000000   22.223040  117.886757 T F T # C
    5.000000   20.993040  118.596954 T F T # C
    5.000000   20.993040  120.017227 T F T # C
    5.000000   24.683039  117.886757 T F T # C
    5.000000   23.453041  118.596954 T F T # C
    5.000000   25.913040  118.596954 T F T # C
    5.000000   23.453041  120.017227 T F T # C
    5.000000   25.913040  120.017227 T F T # C
    5.000000   27.143040  117.886757 T F T # C
    5.000000   29.603041  117.886757 T F T # C
    5.000000   28.373039  118.596954 T F T # C
    5.000000   28.373039  120.017227 T F T # C
    5.000000   22.223040  120.727295 T F T # C
    5.000000   22.223040  122.147560 T F T # C
    5.000000   20.993040  122.857758 T F T # C
    5.000000   24.683039  120.727295 T F T # C
    5.000000   24.683039  122.147560 T F T # C
    5.000000   23.453041  122.857758 T F T # C
    5.000000   25.913040  122.857758 T F T # C
    5.000000   27.143040  120.727295 T F T # C
    5.000000   29.603041  120.727295 T F T # C
    5.000000   27.143040  122.147560 T F T # C
    5.000000   29.603041  122.147560 T F T # C
    5.000000   28.373039  122.857758 T F T # C
    5.000000   20.993040  124.278015 T F T # C
    5.000000   22.223040  124.988220 T F T # C
    5.000000   22.223040  126.408485 T F T # C
    5.000000   20.993040  127.118561 T F T # C
    5.000000   23.453041  124.278015 T F T # C
    5.000000   25.913040  124.278015 T F T # C
    5.000000   24.683039  124.988220 T F T # C
    5.000000   24.683039  126.408485 T F T # C
    5.000000   23.453041  127.118561 T F T # C
    5.000000   25.913040  127.118561 T F T # C
    5.000000   28.373039  124.278015 T F T # C
    5.000000   27.143040  124.988220 T F T # C
    5.000000   29.603041  124.988220 T F T # C
    5.000000   27.143040  126.408485 T F T # C
    5.000000   29.603041  126.408485 T F T # C
    5.000000   28.373039  127.118561 T F T # C
    5.000000   30.833040    0.713573 T F T # C
    5.000000   33.293041    0.713573 T F T # C
    5.000000   32.063042    1.423718 T F T # C
    5.000000   32.063042    2.843998 T F T # C
    5.000000   35.753040    0.713573 T F T # C
    5.000000   34.523041    1.423718 T F T # C
    5.000000   34.523041    2.843998 T F T # C
    5.000000   38.213039    0.713573 T F T # C
    5.000000   36.983040    1.423718 T F T # C
    5.000000   39.443039    1.423718 T F T # C
    5.000000   36.983040    2.843998 T F T # C
    5.000000   39.443039    2.843998 T F T # C
    5.000000   30.833040    3.554132 T F T # C
    5.000000   33.293041    3.554132 T F T # C
    5.000000   30.833040    4.974411 T F T # C
    5.000000   33.293041    4.974411 T F T # C
    5.000000   32.063042    5.684557 T F T # C
    5.000000   35.753040    3.554132 T F T # C
    5.000000   35.753040    4.974411 T F T # C
    5.000000   34.523041    5.684557 T F T # C
    5.000000   38.213039    3.554132 T F T # C
    5.000000   38.213039    4.974411 T F T # C
    5.000000   36.983040    5.684557 T F T # C
    5.000000   39.443039    5.684557 T F T # C
    5.000000   32.063042    7.104837 T F T # C
    5.000000   30.833040    7.814983 T F T # C
    5.000000   33.293041    7.814983 T F T # C
    5.000000   30.833040    9.235263 T F T # C
    5.000000   33.293041    9.235263 T F T # C
    5.000000   32.063042    9.945396 T F T # C
    5.000000   34.523041    7.104837 T F T # C
    5.000000   35.753040    7.814983 T F T # C
    5.000000   35.753040    9.235263 T F T # C
    5.000000   34.523041    9.945396 T F T # C
    5.000000   36.983040    7.104837 T F T # C
    5.000000   39.443039    7.104837 T F T # C
    5.000000   38.213039    7.814983 T F T # C
    5.000000   38.213039    9.235263 T F T # C
    5.000000   36.983040    9.945396 T F T # C
    5.000000   39.443039    9.945396 T F T # C
    5.000000   32.063042   11.365676 T F T # C
    5.000000   30.833040   12.075822 T F T # C
    5.000000   33.293041   12.075822 T F T # C
    5.000000   30.833040   13.496051 T F T # C
    5.000000   33.293041   13.496051 T F T # C
    5.000000   34.523041   11.365676 T F T # C
    5.000000   35.753040   12.075822 T F T # C
    5.000000   35.753040   13.496051 T F T # C
    5.000000   36.983040   11.365676 T F T # C
    5.000000   39.443039   11.365676 T F T # C
    5.000000   38.213039   12.075822 T F T # C
    5.000000   38.213039   13.496051 T F T # C
    5.000000   32.063042   14.206248 T F T # C
    5.000000   32.063042   15.626515 T F T # C
    5.000000   30.833040   16.336712 T F T # C
    5.000000   33.293041   16.336712 T F T # C
    5.000000   34.523041   14.206248 T F T # C
    5.000000   34.523041   15.626515 T F T # C
    5.000000   35.753040   16.336712 T F T # C
    5.000000   36.983040   14.206248 T F T # C
    5.000000   39.443039   14.206248 T F T # C
    5.000000   36.983040   15.626515 T F T # C
    5.000000   39.443039   15.626515 T F T # C
    5.000000   38.213039   16.336712 T F T # C
    5.000000   30.833040   17.756979 T F T # C
    5.000000   33.293041   17.756979 T F T # C
    5.000000   32.063042   18.467051 T F T # C
    5.000000   32.063042   19.887316 T F T # C
    5.000000   30.833040   20.597513 T F T # C
    5.000000   33.293041   20.597513 T F T # C
    5.000000   35.753040   17.756979 T F T # C
    5.000000   34.523041   18.467051 T F T # C
    5.000000   34.523041   19.887316 T F T # C
    5.000000   35.753040   20.597513 T F T # C
    5.000000   38.213039   17.756979 T F T # C
    5.000000   36.983040   18.467051 T F T # C
    5.000000   39.443039   18.467051 T F T # C
    5.000000   36.983040   19.887316 T F T # C
    5.000000   39.443039   19.887316 T F T # C
    5.000000   38.213039   20.597513 T F T # C
    5.000000   30.833040  107.234695 T F T # C
    5.000000   33.293041  107.234695 T F T # C
    5.000000   32.063042  107.944756 T F T # C
    5.000000   32.063042  109.365028 T F T # C
    5.000000   35.753040  107.234695 T F T # C
    5.000000   34.523041  107.944756 T F T # C
    5.000000   34.523041  109.365028 T F T # C
    5.000000   38.213039  107.234695 T F T # C
    5.000000   36.983040  107.944756 T F T # C
    5.000000   39.443039  107.944756 T F T # C
    5.000000   36.983040  109.365028 T F T # C
    5.000000   39.443039  109.365028 T F T # C
    5.000000   30.833040  110.075226 T F T # C
    5.000000   33.293041  110.075226 T F T # C
    5.000000   30.833040  111.495491 T F T # C
    5.000000   33.293041  111.495491 T F T # C
    5.000000   32.063042  112.205688 T F T # C
    5.000000   35.753040  110.075226 T F T # C
    5.000000   35.753040  111.495491 T F T # C
    5.000000   34.523041  112.205688 T F T # C
    5.000000   38.213039  110.075226 T F T # C
    5.000000   38.213039  111.495491 T F T # C
    5.000000   36.983040  112.205688 T F T # C
    5.000000   39.443039  112.205688 T F T # C
    5.000000   32.063042  113.625961 T F T # C
    5.000000   30.833040  114.336021 T F T # C
    5.000000   33.293041  114.336021 T F T # C
    5.000000   30.833040  115.756294 T F T # C
    5.000000   33.293041  115.756294 T F T # C
    5.000000   32.063042  116.466492 T F T # C
    5.000000   34.523041  113.625961 T F T # C
    5.000000   35.753040  114.336021 T F T # C
    5.000000   35.753040  115.756294 T F T # C
    5.000000   34.523041  116.466492 T F T # C
    5.000000   36.983040  113.625961 T F T # C
    5.000000   39.443039  113.625961 T F T # C
    5.000000   38.213039  114.336021 T F T # C
    5.000000   38.213039  115.756294 T F T # C
    5.000000   36.983040  116.466492 T F T # C
    5.000000   39.443039  116.466492 T F T # C
    5.000000   32.063042  117.886757 T F T # C
    5.000000   30.833040  118.596954 T F T # C
    5.000000   33.293041  118.596954 T F T # C
    5.000000   30.833040  120.017227 T F T # C
    5.000000   33.293041  120.017227 T F T # C
    5.000000   34.523041  117.886757 T F T # C
    5.000000   35.753040  118.596954 T F T # C
    5.000000   35.753040  120.017227 T F T # C
    5.000000   36.983040  117.886757 T F T # C
    5.000000   39.443039  117.886757 T F T # C
    5.000000   38.213039  118.596954 T F T # C
    5.000000   38.213039  120.017227 T F T # C
    5.000000   32.063042  120.727295 T F T # C
    5.000000   32.063042  122.147560 T F T # C
    5.000000   30.833040  122.857758 T F T # C
    5.000000   33.293041  122.857758 T F T # C
    5.000000   34.523041  120.727295 T F T # C
    5.000000   34.523041  122.147560 T F T # C
    5.000000   35.753040  122.857758 T F T # C
    5.000000   36.983040  120.727295 T F T # C
    5.000000   39.443039  120.727295 T F T # C
    5.000000   36.983040  122.147560 T F T # C
    5.000000   39.443039  122.147560 T F T # C
    5.000000   38.213039  122.857758 T F T # C
    5.000000   30.833040  124.278015 T F T # C
    5.000000   33.293041  124.278015 T F T # C
    5.000000   32.063042  124.988220 T F T # C
    5.000000   32.063042  126.408485 T F T # C
    5.000000   30.833040  127.118561 T F T # C
    5.000000   33.293041  127.118561 T F T # C
    5.000000   35.753040  124.278015 T F T # C
    5.000000   34.523041  124.988220 T F T # C
    5.000000   34.523041  126.408485 T F T # C
    5.000000   35.753040  127.118561 T F T # C
    5.000000   38.213039  124.278015 T F T # C
    5.000000   36.983040  124.988220 T F T # C
    5.000000   39.443039  124.988220 T F T # C
    5.000000   36.983040  126.408485 T F T # C
    5.000000   39.443039  126.408485 T F T # C
    5.000000   38.213039  127.118561 T F T # C
    5.000000   40.673038    0.713573 T F T # C
    5.000000   43.133041    0.713573 T F T # C
    5.000000   41.903038    1.423718 T F T # C
    5.000000   41.903038    2.843998 T F T # C
    5.000000   45.593040    0.713573 T F T # C
    5.000000   44.363041    1.423718 T F T # C
    5.000000   44.363041    2.843998 T F T # C
    5.000000   46.823040    1.423718 T F T # C
    5.000000   46.823040    2.843998 T F T # C
    5.000000   40.673038    3.554132 T F T # C
    5.000000   43.133041    3.554132 T F T # C
    5.000000   40.673038    4.974411 T F T # C
    5.000000   43.133041    4.974411 T F T # C
    5.000000   41.903038    5.684557 T F T # C
    5.000000   45.593040    3.554132 T F T # C
    5.000000   45.593040    4.974411 T F T # C
    5.000000   44.363041    5.684557 T F T # C
    5.000000   46.823040    5.684557 T F T # C
    5.000000   41.903038    7.104837 T F T # C
    5.000000   40.673038    7.814983 T F T # C
    5.000000   43.133041    7.814983 T F T # C
    5.000000   40.673038    9.235263 T F T # C
    5.000000   43.133041    9.235263 T F T # C
    5.000000   41.903038    9.945396 T F T # C
    5.000000   44.363041    7.104837 T F T # C
    5.000000   45.593040    7.814983 T F T # C
    5.000000   45.593040    9.235263 T F T # C
    5.000000   44.363041    9.945396 T F T # C
    5.000000   46.823040    7.104837 T F T # C
    5.000000   46.823040    9.945396 T F T # C
    5.000000   41.903038   11.365676 T F T # C
    5.000000   40.673038   12.075822 T F T # C
    5.000000   43.133041   12.075822 T F T # C
    5.000000   40.673038   13.496051 T F T # C
    5.000000   43.133041   13.496051 T F T # C
    5.000000   44.363041   11.365676 T F T # C
    5.000000   45.593040   12.075822 T F T # C
    5.000000   45.593040   13.496051 T F T # C
    5.000000   46.823040   11.365676 T F T # C
    5.000000   41.903038   14.206248 T F T # C
    5.000000   41.903038   15.626515 T F T # C
    5.000000   40.673038   16.336712 T F T # C
    5.000000   43.133041   16.336712 T F T # C
    5.000000   44.363041   14.206248 T F T # C
    5.000000   44.363041   15.626515 T F T # C
    5.000000   45.593040   16.336712 T F T # C
    5.000000   46.823040   14.206248 T F T # C
    5.000000   46.823040   15.626515 T F T # C
    5.000000   40.673038   17.756979 T F T # C
    5.000000   43.133041   17.756979 T F T # C
    5.000000   41.903038   18.467051 T F T # C
    5.000000   41.903038   19.887316 T F T # C
    5.000000   40.673038   20.597513 T F T # C
    5.000000   43.133041   20.597513 T F T # C
    5.000000   45.593040   17.756979 T F T # C
    5.000000   44.363041   18.467051 T F T # C
    5.000000   44.363041   19.887316 T F T # C
    5.000000   45.593040   20.597513 T F T # C
    5.000000   46.823040   18.467051 T F T # C
    5.000000   46.823040   19.887316 T F T # C
    5.000000   40.673038  107.234695 T F T # C
    5.000000   43.133041  107.234695 T F T # C
    5.000000   41.903038  107.944756 T F T # C
    5.000000   41.903038  109.365028 T F T # C
    5.000000   45.593040  107.234695 T F T # C
    5.000000   44.363041  107.944756 T F T # C
    5.000000   44.363041  109.365028 T F T # C
    5.000000   46.823040  107.944756 T F T # C
    5.000000   46.823040  109.365028 T F T # C
    5.000000   40.673038  110.075226 T F T # C
    5.000000   43.133041  110.075226 T F T # C
    5.000000   40.673038  111.495491 T F T # C
    5.000000   43.133041  111.495491 T F T # C
    5.000000   41.903038  112.205688 T F T # C
    5.000000   45.593040  110.075226 T F T # C
    5.000000   45.593040  111.495491 T F T # C
    5.000000   44.363041  112.205688 T F T # C
    5.000000   46.823040  112.205688 T F T # C
    5.000000   41.903038  113.625961 T F T # C
    5.000000   40.673038  114.336021 T F T # C
    5.000000   43.133041  114.336021 T F T # C
    5.000000   40.673038  115.756294 T F T # C
    5.000000   43.133041  115.756294 T F T # C
    5.000000   41.903038  116.466492 T F T # C
    5.000000   44.363041  113.625961 T F T # C
    5.000000   45.593040  114.336021 T F T # C
    5.000000   45.593040  115.756294 T F T # C
    5.000000   44.363041  116.466492 T F T # C
    5.000000   46.823040  113.625961 T F T # C
    5.000000   46.823040  116.466492 T F T # C
    5.000000   41.903038  117.886757 T F T # C
    5.000000   40.673038  118.596954 T F T # C
    5.000000   43.133041  118.596954 T F T # C
    5.000000   40.673038  120.017227 T F T # C
    5.000000   43.133041  120.017227 T F T # C
    5.000000   44.363041  117.886757 T F T # C
    5.000000   45.593040  118.596954 T F T # C
    5.000000   45.593040  120.017227 T F T # C
    5.000000   46.823040  117.886757 T F T # C
    5.000000   41.903038  120.727295 T F T # C
    5.000000   41.903038  122.147560 T F T # C
    5.000000   40.673038  122.857758 T F T # C
    5.000000   43.133041  122.857758 T F T # C
    5.000000   44.363041  120.727295 T F T # C
    5.000000   44.363041  122.147560 T F T # C
    5.000000   45.593040  122.857758 T F T # C
    5.000000   46.823040  120.727295 T F T # C
    5.000000   46.823040  122.147560 T F T # C
    5.000000   40.673038  124.278015 T F T # C
    5.000000   43.133041  124.278015 T F T # C
    5.000000   41.903038  124.988220 T F T # C
    5.000000   41.903038  126.408485 T F T # C
    5.000000   40.673038  127.118561 T F T # C
    5.000000   43.133041  127.118561 T F T # C
    5.000000   45.593040  124.278015 T F T # C
    5.000000   44.363041  124.988220 T F T # C
    5.000000   44.363041  126.408485 T F T # C
    5.000000   45.593040  127.118561 T F T # C
    5.000000   46.823040  124.988220 T F T # C
    5.000000   46.823040  126.408485 T F T # C
    5.000000   11.438940    0.878652 T F F # H
    5.000000   11.438940    3.389058 T F F # H
    5.000000   11.438940    5.139497 T F F # H
    5.000000   11.438940    7.649897 T F F # H
    5.000000   11.438940    9.400337 T F F # H
    5.000000   11.438940   11.910736 T F F # H
    5.000000   11.438940   13.661201 T F F # H
    5.000000   11.438940   16.171562 T F F # H
    5.000000   11.438940   17.922001 T F F # H
    5.000000   11.438940   20.432491 T F F # H
    5.000000   13.613040   21.687609 T F F # H
    5.000000   16.073040   21.687609 T F F # H
    5.000000   18.533039   21.687609 T F F # H
    5.000000   13.613040  106.144470 T F F # H
    5.000000   16.073040  106.144470 T F F # H
    5.000000   18.533039  106.144470 T F F # H
    5.000000   11.438940  107.399712 T F F # H
    5.000000   11.438940  109.910072 T F F # H
    5.000000   11.438940  111.660515 T F F # H
    5.000000   11.438940  114.171005 T F F # H
    5.000000   11.438940  115.921440 T F F # H
    5.000000   11.438940  118.431808 T F F # H
    5.000000   11.438940  120.182243 T F F # H
    5.000000   11.438940  122.692604 T F F # H
    5.000000   11.438940  124.443047 T F F # H
    5.000000   11.438940  126.953529 T F F # H
    5.000000   20.993040   21.687609 T F F # H
    5.000000   22.508942   22.562828 T F F # H
    5.000000   22.508942   24.313269 T F F # H
    5.000000   22.508942   26.823757 T F F # H
    5.000000   22.508942   28.574196 T F F # H
    5.000000   22.508942   31.084558 T F F # H
    5.000000   22.508942   32.834995 T F F # H
    5.000000   22.508942   35.345360 T F F # H
    5.000000   22.508942   37.095798 T F F # H
    5.000000   22.508942   39.606285 T F F # H
    5.000000   22.508942   41.356598 T F F # H
    5.000000   22.508942   43.867088 T F F # H
    5.000000   22.508942   45.617527 T F F # H
    5.000000   22.508942   48.127888 T F F # H
    5.000000   22.508942   49.878326 T F F # H
    5.000000   22.508942   52.388691 T F F # H
    5.000000   22.508942   54.139130 T F F # H
    5.000000   22.508942   56.649616 T F F # H
    5.000000   22.508942   58.400059 T F F # H
    5.000000   22.508942   60.910419 T F F # H
    5.000000   22.508942   62.660854 T F F # H
    5.000000   22.508942   65.171219 T F F # H
    5.000000   22.508942   66.921661 T F F # H
    5.000000   22.508942   69.432144 T F F # H
    5.000000   22.508942   71.182587 T F F # H
    5.000000   22.508942   73.692947 T F F # H
    5.000000   22.508942   75.443382 T F F # H