%block AtomicCoordinatesAndAtomicSpecies
    5.000000   12.383040    1.423712  4 Cele
    5.000000   12.383040    2.843994  4 Cele
    5.000000   13.613040    0.713573  4 Cele
    5.000000   16.073040    0.713573  4 Cele
    5.000000   14.843040    1.423712  4 Cele
    5.000000   14.843040    2.843994  4 Cele
    5.000000   13.613040    3.554133  4 Cele
    5.000000   16.073040    3.554133  4 Cele
    5.000000   18.533039    0.713573  4 Cele
    5.000000   17.303040    1.423712  4 Cele
    5.000000   19.763041    1.423712  4 Cele
    5.000000   17.303040    2.843994  4 Cele
    5.000000   19.763041    2.843994  4 Cele
    5.000000   18.533039    3.554133  4 Cele
    5.000000   20.993040    0.713573  4 Cele
    5.000000   22.223040    1.423712  4 Cele
    5.000000   22.223040    2.843994  4 Cele
    5.000000   20.993040    3.554133  4 Cele
    5.000000   23.453041    0.713573  4 Cele
    5.000000   25.913040    0.713573  4 Cele
    5.000000   24.683039    1.423712  4 Cele
    5.000000   24.683039    2.843994  4 Cele
    5.000000   23.453041    3.554133  4 Cele
    5.000000   25.913040    3.554133  4 Cele
    5.000000   28.373039    0.713573  4 Cele
    5.000000   27.143040    1.423712  4 Cele
    5.000000   29.603041    1.423712  4 Cele
    5.000000   27.143040    2.843994  4 Cele
    5.000000   29.603041    2.843994  4 Cele
    5.000000   28.373039    3.554133  4 Cele
    5.000000   30.833040    0.713573  4 Cele
    5.000000   33.293041    0.713573  4 Cele
    5.000000   32.063042    1.423712  4 Cele
    5.000000   32.063042    2.843994  4 Cele
    5.000000   30.833040    3.554133  4 Cele
    5.000000   33.293041    3.554133  4 Cele
    5.000000   35.753040    0.713573  4 Cele
    5.000000   34.523041    1.423712  4 Cele
    5.000000   34.523041    2.843994  4 Cele
    5.000000   35.753040    3.554133  4 Cele
    5.000000   38.213039    0.713573  4 Cele
    5.000000   36.983040    1.423712  4 Cele
    5.000000   39.443039    1.423712  4 Cele
    5.000000   36.983040    2.843994  4 Cele
    5.000000   39.443039    2.843994  4 Cele
    5.000000   38.213039    3.554133  4 Cele
    5.000000   40.673038    0.713573  4 Cele
    5.000000   43.133041    0.713573  4 Cele
    5.000000   41.903038    1.423712  4 Cele
    5.000000   41.903038    2.843994  4 Cele
    5.000000   40.673038    3.554133  4 Cele
    5.000000   43.133041    3.554133  4 Cele
    5.000000   45.593040    0.713573  4 Cele
    5.000000   44.363041    1.423712  4 Cele
    5.000000   44.363041    2.843994  4 Cele
    5.000000   45.593040    3.554133  4 Cele
    5.000000   46.823040    1.423712  4 Cele
    5.000000   46.823040    2.843994  4 Cele
    5.000000   11.438940    0.878654  2 H
    5.000000   11.438940    3.389057  2 H
    5.000000   47.767082    0.878654  2 H
    5.000000   47.767082    3.389057  2 H
%endblock AtomicCoordinatesAndAtomicSpecies
