%block AtomicCoordinatesAndAtomicSpecies
    5.100000   11.503682    0.727845  1 Cwid
    5.100000   10.249113    1.452193  1 Cwid
    5.100000   10.249113    2.900878  1 Cwid
    5.100000   11.503682    3.625214  1 Cwid
    5.100000   11.503682    5.073900  1 Cwid
    5.100000   10.249113    5.798248  1 Cwid
    5.100000   10.249113    7.246933  1 Cwid
    5.100000   11.503682    7.971283  1 Cwid
    5.100000   11.503682    9.419968  1 Cwid
    5.100000   10.249113   10.144304  1 Cwid
    5.100000   10.249113   11.592989  1 Cwid
    5.100000   11.503682   12.317338  1 Cwid
    5.100000   11.503682   13.765971  1 Cwid
    5.100000   10.249113   14.490373  1 Cwid
    5.100000   10.249113   15.939045  1 Cwid
    5.100000   11.503682   16.663446  1 Cwid
    5.100000   11.503682   18.112118  1 Cwid
    5.100000   10.249113   18.836391  1 Cwid
    5.100000   10.249113   20.285061  1 Cwid
    5.100000   11.503682   21.009462  1 Cwid
    5.100000   11.503682  109.379387  1 Cwid
    5.100000   10.249113  110.103645  1 Cwid
    5.100000   10.249113  111.552330  1 Cwid
    5.100000   11.503682  112.276726  1 Cwid
    5.100000   11.503682  113.725395  1 Cwid
    5.100000   10.249113  114.449799  1 Cwid
    5.100000   10.249113  115.898476  1 Cwid
    5.100000   11.503682  116.622742  1 Cwid
    5.100000   11.503682  118.071419  1 Cwid
    5.100000   10.249113  118.795822  1 Cwid
    5.100000   10.249113  120.244492  1 Cwid
    5.100000   11.503682  120.968895  1 Cwid
    5.100000   11.503682  122.417572  1 Cwid
    5.100000   10.249113  123.141838  1 Cwid
    5.100000   10.249113  124.590508  1 Cwid
    5.100000   11.503682  125.314911  1 Cwid
    5.100000   11.503682  126.763573  1 Cwid
    5.100000   10.249113  127.487984  1 Cwid
    5.100000   10.249113  128.936646  1 Cwid
    5.100000   11.503682  129.660934  1 Cwid
    5.100000   14.012893    0.727845  1 Cwid
    5.100000   12.758251    1.452193  1 Cwid
    5.100000   15.267462    1.452193  1 Cwid
    5.100000   12.758251    2.900878  1 Cwid
    5.100000   15.267462    2.900878  1 Cwid
    5.100000   16.522102    0.727845  1 Cwid
    5.100000   19.031313    0.727845  1 Cwid
    5.100000   17.776672    1.452193  1 Cwid
    5.100000   17.776672    2.900878  1 Cwid
    5.100000   21.540451    0.727845  1 Cwid
    5.100000   20.285883    1.452193  1 Cwid
    5.100000   22.795092    1.452193  1 Cwid
    5.100000   20.285883    2.900878  1 Cwid
    5.100000   22.795092    2.900878  1 Cwid
    5.100000   14.012893    3.625214  1 Cwid
    5.100000   14.012893    5.073900  1 Cwid
    5.100000   12.758251    5.798248  1 Cwid
    5.100000   15.267462    5.798248  1 Cwid
    5.100000   16.522102    3.625214  1 Cwid
    5.100000   19.031313    3.625214  1 Cwid
    5.100000   16.522102    5.073900  1 Cwid
    5.100000   19.031313    5.073900  1 Cwid
    5.100000   17.776672    5.798248  1 Cwid
    5.100000   21.540451    3.625214  1 Cwid
    5.100000   21.540451    5.073900  1 Cwid
    5.100000   20.285883    5.798248  1 Cwid
    5.100000   22.795092    5.798248  1 Cwid
    5.100000   12.758251    7.246933  1 Cwid
    5.100000   15.267462    7.246933  1 Cwid
    5.100000   14.012893    7.971283  1 Cwid
    5.100000   14.012893    9.419968  1 Cwid
    5.100000   12.758251   10.144304  1 Cwid
    5.100000   15.267462   10.144304  1 Cwid
    5.100000   17.776672    7.246933  1 Cwid
    5.100000   16.522102    7.971283  1 Cwid
    5.100000   19.031313    7.971283  1 Cwid
    5.100000   16.522102    9.419968  1 Cwid
    5.100000   19.031313    9.419968  1 Cwid
    5.100000   17.776672   10.144304  1 Cwid
    5.100000   20.285883    7.246933  1 Cwid
    5.100000   22.795092    7.246933  1 Cwid
    5.100000   21.540451    7.971283  1 Cwid
    5.100000   21.540451    9.419968  1 Cwid
    5.100000   20.285883   10.144304  1 Cwid
    5.100000   22.795092   10.144304  1 Cwid
    5.100000   12.758251   11.592989  1 Cwid
    5.100000   15.267462   11.592989  1 Cwid
    5.100000   14.012893   12.317338  1 Cwid
    5.100000   14.012893   13.765971  1 Cwid
    5.100000   17.776672   11.592989  1 Cwid
    5.100000   16.522102   12.317338  1 Cwid
    5.100000   19.031313   12.317338  1 Cwid
    5.100000   16.522102   13.765971  1 Cwid
    5.100000   19.031313   13.765971  1 Cwid
    5.100000   20.285883   11.592989  1 Cwid
    5.100000   22.795092   11.592989  1 Cwid
    5.100000   21.540451   12.317338  1 Cwid
    5.100000   21.540451   13.765971  1 Cwid
    5.100000   12.758251   14.490373  1 Cwid
    5.100000   15.267462   14.490373  1 Cwid
    5.100000   12.758251   15.939045  1 Cwid
    5.100000   15.267462   15.939045  1 Cwid
    5.100000   14.012893   16.663446  1 Cwid
    5.100000   17.776672   14.490373  1 Cwid
    5.100000   17.776672   15.939045  1 Cwid
    5.100000   16.522102   16.663446  1 Cwid
    5.100000   19.031313   16.663446  1 Cwid
    5.100000   20.285883   14.490373  1 Cwid
    5.100000   22.795092   14.490373  1 Cwid
    5.100000   20.285883   15.939045  1 Cwid
    5.100000   22.795092   15.939045  1 Cwid
    5.100000   21.540451   16.663446  1 Cwid
    5.100000   14.012893   18.112118  1 Cwid
    5.100000   12.758251   18.836391  1 Cwid
    5.100000   15.267462   18.836391  1 Cwid
    5.100000   12.758251   20.285061  1 Cwid
    5.100000   15.267462   20.285061  1 Cwid
    5.100000   14.012893   21.009462  1 Cwid
    5.100000   16.522102   18.112118  1 Cwid
    5.100000   19.031313   18.112118  1 Cwid
    5.100000   17.776672   18.836391  1 Cwid
    5.100000   17.776672   20.285061  1 Cwid
    5.100000   16.522102   21.009462  1 Cwid
    5.100000   19.031313   21.009462  1 Cwid
    5.100000   21.540451   18.112118  1 Cwid
    5.100000   20.285883   18.836391  1 Cwid
    5.100000   22.795092   18.836391  1 Cwid
    5.100000   20.285883   20.285061  1 Cwid
    5.100000   22.795092   20.285061  1 Cwid
    5.100000   21.540451   21.009462  1 Cwid
    5.100000   14.012893  109.379387  1 Cwid
    5.100000   12.758251  110.103645  1 Cwid
    5.100000   15.267462  110.103645  1 Cwid
    5.100000   12.758251  111.552330  1 Cwid
    5.100000   15.267462  111.552330  1 Cwid
    5.100000   16.522102  109.379387  1 Cwid
    5.100000   19.031313  109.379387  1 Cwid
    5.100000   17.776672  110.103645  1 Cwid
    5.100000   17.776672  111.552330  1 Cwid
    5.100000   21.540451  109.379387  1 Cwid
    5.100000   20.285883  110.103645  1 Cwid
    5.100000   22.795092  110.103645  1 Cwid
    5.100000   20.285883  111.552330  1 Cwid
    5.100000   22.795092  111.552330  1 Cwid
    5.100000   14.012893  112.276726  1 Cwid
    5.100000   14.012893  113.725395  1 Cwid
    5.100000   12.758251  114.449799  1 Cwid
    5.100000   15.267462  114.449799  1 Cwid
    5.100000   16.522102  112.276726  1 Cwid
    5.100000   19.031313  112.276726  1 Cwid
    5.100000   16.522102  113.725395  1 Cwid
    5.100000   19.031313  113.725395  1 Cwid
    5.100000   17.776672  114.449799  1 Cwid
    5.100000   21.540451  112.276726  1 Cwid
    5.100000   21.540451  113.725395  1 Cwid
    5.100000   20.285883  114.449799  1 Cwid
    5.100000   22.795092  114.449799  1 Cwid
    5.100000   12.758251  115.898476  1 Cwid
    5.100000   15.267462  115.898476  1 Cwid
    5.100000   14.012893  116.622742  1 Cwid
    5.100000   14.012893  118.071419  1 Cwid
    5.100000   12.758251  118.795822  1 Cwid
    5.100000   15.267462  118.795822  1 Cwid
    5.100000   17.776672  115.898476  1 Cwid
    5.100000   16.522102  116.622742  1 Cwid
    5.100000   19.031313  116.622742  1 Cwid
    5.100000   16.522102  118.071419  1 Cwid
    5.100000   19.031313  118.071419  1 Cwid
    5.100000   17.776672  118.795822  1 Cwid
    5.100000   20.285883  115.898476  1 Cwid
    5.100000   22.795092  115.898476  1 Cwid
    5.100000   21.540451  116.622742  1 Cwid
    5.100000   21.540451  118.071419  1 Cwid
    5.100000   20.285883  118.795822  1 Cwid
    5.100000   22.795092  118.795822  1 Cwid
    5.100000   12.758251  120.244492  1 Cwid
    5.100000   15.267462  120.244492  1 Cwid
    5.100000   14.012893  120.968895  1 Cwid
    5.100000   14.012893  122.417572  1 Cwid
    5.100000   17.776672  120.244492  1 Cwid
    5.100000   16.522102  120.968895  1 Cwid
    5.100000   19.031313  120.968895  1 Cwid
    5.100000   16.522102  122.417572  1 Cwid
    5.100000   19.031313  122.417572  1 Cwid
    5.100000   20.285883  120.244492  1 Cwid
    5.100000   22.795092  120.244492  1 Cwid
    5.100000   21.540451  120.968895  1 Cwid
    5.100000   21.540451  122.417572  1 Cwid
    5.100000   12.758251  123.141838  1 Cwid
    5.100000   15.267462  123.141838  1 Cwid
    5.100000   12.758251  124.590508  1 Cwid
    5.100000   15.267462  124.590508  1 Cwid
    5.100000   14.012893  125.314911  1 Cwid
    5.100000   17.776672  123.141838  1 Cwid
    5.100000   17.776672  124.590508  1 Cwid
    5.100000   16.522102  125.314911  1 Cwid
    5.100000   19.031313  125.314911  1 Cwid
    5.100000   20.285883  123.141838  1 Cwid
    5.100000   22.795092  123.141838  1 Cwid
    5.100000   20.285883  124.590508  1 Cwid
    5.100000   22.795092  124.590508  1 Cwid
    5.100000   21.540451  125.314911  1 Cwid
    5.100000   14.012893  126.763573  1 Cwid
    5.100000   12.758251  127.487984  1 Cwid
    5.100000   15.267462  127.487984  1 Cwid
    5.100000   12.758251  128.936646  1 Cwid
    5.100000   15.267462  128.936646  1 Cwid
    5.100000   14.012893  129.660934  1 Cwid
    5.100000   16.522102  126.763573  1 Cwid
    5.100000   19.031313  126.763573  1 Cwid
    5.100000   17.776672  127.487984  1 Cwid
    5.100000   17.776672  128.936646  1 Cwid
    5.100000   16.522102  129.660934  1 Cwid
    5.100000   19.031313  129.660934  1 Cwid
    5.100000   21.540451  126.763573  1 Cwid
    5.100000   20.285883  127.487984  1 Cwid
    5.100000   22.795092  127.487984  1 Cwid
    5.100000   20.285883  128.936646  1 Cwid
    5.100000   22.795092  128.936646  1 Cwid
    5.100000   21.540451  129.660934  1 Cwid
    5.100000   24.049662    0.727845  1 Cwid
    5.100000   26.558872    0.727845  1 Cwid
    5.100000   25.304302    1.452193  1 Cwid
    5.100000   25.304302    2.900878  1 Cwid
    5.100000   29.068081    0.727845  1 Cwid
    5.100000   31.577293    0.727845  1 Cwid
    5.100000   27.813442    1.452193  1 Cwid
    5.100000   30.322651    1.452193  1 Cwid
    5.100000   27.813442    2.900878  1 Cwid
    5.100000   30.322651    2.900878  1 Cwid
    5.100000   34.086502    0.727845  1 Cwid
    5.100000   32.831860    1.452193  1 Cwid
    5.100000   35.341072    1.452193  1 Cwid
    5.100000   32.831860    2.900878  1 Cwid
    5.100000   35.341072    2.900878  1 Cwid
    5.100000   24.049662    3.625214  1 Cwid
    5.100000   26.558872    3.625214  1 Cwid
    5.100000   24.049662    5.073900  1 Cwid
    5.100000   26.558872    5.073900  1 Cwid
    5.100000   25.304302    5.798248  1 Cwid
    5.100000   29.068081    3.625214  1 Cwid
    5.100000   31.577293    3.625214  1 Cwid
    5.100000   29.068081    5.073900  1 Cwid
    5.100000   31.577293    5.073900  1 Cwid
    5.100000   27.813442    5.798248  1 Cwid
    5.100000   30.322651    5.798248  1 Cwid
    5.100000   34.086502    3.625214  1 Cwid
    5.100000   34.086502    5.073900  1 Cwid
    5.100000   32.831860    5.798248  1 Cwid
    5.100000   35.341072    5.798248  1 Cwid
    5.100000   25.304302    7.246933  1 Cwid
    5.100000   24.049662    7.971283  1 Cwid
    5.100000   26.558872    7.971283  1 Cwid
    5.100000   24.049662    9.419968  1 Cwid
    5.100000   26.558872    9.419968  1 Cwid
    5.100000   25.304302   10.144304  1 Cwid
    5.100000   27.813442    7.246933  1 Cwid
    5.100000   30.322651    7.246933  1 Cwid
    5.100000   29.068081    7.971283  1 Cwid
    5.100000   31.577293    7.971283  1 Cwid
    5.100000   29.068081    9.419968  1 Cwid
    5.100000   31.577293    9.419968  1 Cwid
    5.100000   27.813442   10.144304  1 Cwid
    5.100000   30.322651   10.144304  1 Cwid
    5.100000   32.831860    7.246933  1 Cwid
    5.100000   35.341072    7.246933  1 Cwid
    5.100000   34.086502    7.971283  1 Cwid
    5.100000   34.086502    9.419968  1 Cwid
    5.100000   32.831860   10.144304  1 Cwid
    5.100000   35.341072   10.144304  1 Cwid
    5.100000   25.304302   11.592989  1 Cwid
    5.100000   24.049662   12.317338  1 Cwid
    5.100000   26.558872   12.317338  1 Cwid
    5.100000   24.049662   13.765971  1 Cwid
    5.100000   26.558872   13.765971  1 Cwid
    5.100000   27.813442   11.592989  1 Cwid
    5.100000   30.322651   11.592989  1 Cwid
    5.100000   29.068081   12.317338  1 Cwid
    5.100000   31.577293   12.317338  1 Cwid
    5.100000   29.068081   13.765971  1 Cwid
    5.100000   31.577293   13.765971  1 Cwid
    5.100000   32.831860   11.592989  1 Cwid
    5.100000   35.341072   11.592989  1 Cwid
    5.100000   34.086502   12.317338  1 Cwid
    5.100000   34.086502   13.765971  1 Cwid
    5.100000   25.304302   14.490373  1 Cwid
    5.100000   25.304302   15.939045  1 Cwid
    5.100000   24.049662   16.663446  1 Cwid
    5.100000   26.558872   16.663446  1 Cwid
    5.100000   27.813442   14.490373  1 Cwid
    5.100000   30.322651   14.490373  1 Cwid
    5.100000   27.813442   15.939045  1 Cwid
    5.100000   30.322651   15.939045  1 Cwid
    5.100000   29.068081   16.663446  1 Cwid
    5.100000   31.577293   16.663446  1 Cwid
    5.100000   32.831860   14.490373  1 Cwid
    5.100000   35.341072   14.490373  1 Cwid
    5.100000   32.831860   15.939045  1 Cwid
    5.100000   35.341072   15.939045  1 Cwid
    5.100000   34.086502   16.663446  1 Cwid
    5.100000   24.049662   18.112118  1 Cwid
    5.100000   26.558872   18.112118  1 Cwid
    5.100000   25.304302   18.836391  1 Cwid
    5.100000   25.304302   20.285061  1 Cwid
    5.100000   24.049662   21.009462  1 Cwid
    5.100000   26.558872   21.009462  1 Cwid
    5.100000   29.068081   18.112118  1 Cwid
    5.100000   31.577293   18.112118  1 Cwid
    5.100000   27.813442   18.836391  1 Cwid
    5.100000   30.322651   18.836391  1 Cwid
    5.100000   27.813442   20.285061  1 Cwid
    5.100000   30.322651   20.285061  1 Cwid
    5.100000   29.068081   21.009462  1 Cwid
    5.100000   31.577293   21.009462  1 Cwid
    5.100000   34.086502   18.112118  1 Cwid
    5.100000   32.831860   18.836391  1 Cwid
    5.100000   35.341072   18.836391  1 Cwid
    5.100000   32.831860   20.285061  1 Cwid
    5.100000   35.341072   20.285061  1 Cwid
    5.100000   34.086502   21.009462  1 Cwid
    5.100000   24.049662  109.379387  1 Cwid
    5.100000   26.558872  109.379387  1 Cwid
    5.100000   25.304302  110.103645  1 Cwid
    5.100000   25.304302  111.552330  1 Cwid
    5.100000   29.068081  109.379387  1 Cwid
    5.100000   31.577293  109.379387  1 Cwid
    5.100000   27.813442  110.103645  1 Cwid
    5.100000   30.322651  110.103645  1 Cwid
    5.100000   27.813442  111.552330  1 Cwid
    5.100000   30.322651  111.552330  1 Cwid
    5.100000   34.086502  109.379387  1 Cwid
    5.100000   32.831860  110.103645  1 Cwid
    5.100000   35.341072  110.103645  1 Cwid
    5.100000   32.831860  111.552330  1 Cwid
    5.100000   35.341072  111.552330  1 Cwid
    5.100000   24.049662  112.276726  1 Cwid
    5.100000   26.558872  112.276726  1 Cwid
    5.100000   24.049662  113.725395  1 Cwid
    5.100000   26.558872  113.725395  1 Cwid
    5.100000   25.304302  114.449799  1 Cwid
    5.100000   29.068081  112.276726  1 Cwid
    5.100000   31.577293  112.276726  1 Cwid
    5.100000   29.068081  113.725395  1 Cwid
    5.100000   31.577293  113.725395  1 Cwid
    5.100000   27.813442  114.449799  1 Cwid
    5.100000   30.322651  114.449799  1 Cwid
    5.100000   34.086502  112.276726  1 Cwid
    5.100000   34.086502  113.725395  1 Cwid
    5.100000   32.831860  114.449799  1 Cwid
    5.100000   35.341072  114.449799  1 Cwid
    5.100000   25.304302  115.898476  1 Cwid
    5.100000   24.049662  116.622742  1 Cwid
    5.100000   26.558872  116.622742  1 Cwid
    5.100000   24.049662  118.071419  1 Cwid
    5.100000   26.558872  118.071419  1 Cwid
    5.100000   25.304302  118.795822  1 Cwid
    5.100000   27.813442  115.898476  1 Cwid
    5.100000   30.322651  115.898476  1 Cwid
    5.100000   29.068081  116.622742  1 Cwid
    5.100000   31.577293  116.622742  1 Cwid
    5.100000   29.068081  118.071419  1 Cwid
    5.100000   31.577293  118.071419  1 Cwid
    5.100000   27.813442  118.795822  1 Cwid
    5.100000   30.322651  118.795822  1 Cwid
    5.100000   32.831860  115.898476  1 Cwid
    5.100000   35.341072  115.898476  1 Cwid
    5.100000   34.086502  116.622742  1 Cwid
    5.100000   34.086502  118.071419  1 Cwid
    5.100000   32.831860  118.795822  1 Cwid
    5.100000   35.341072  118.795822  1 Cwid
    5.100000   25.304302  120.244492  1 Cwid
    5.100000   24.049662  120.968895  1 Cwid
    5.100000   26.558872  120.968895  1 Cwid
    5.100000   24.049662  122.417572  1 Cwid
    5.100000   26.558872  122.417572  1 Cwid
    5.100000   27.813442  120.244492  1 Cwid
    5.100000   30.322651  120.244492  1 Cwid
    5.100000   29.068081  120.968895  1 Cwid
    5.100000   31.577293  120.968895  1 Cwid
    5.100000   29.068081  122.417572  1 Cwid
    5.100000   31.577293  122.417572  1 Cwid
    5.100000   32.831860  120.244492  1 Cwid
    5.100000   35.341072  120.244492  1 Cwid
    5.100000   34.086502  120.968895  1 Cwid
    5.100000   34.086502  122.417572  1 Cwid
    5.100000   25.304302  123.141838  1 Cwid
    5.100000   25.304302  124.590508  1 Cwid
    5.100000   24.049662  125.314911  1 Cwid
    5.100000   26.558872  125.314911  1 Cwid
    5.100000   27.813442  123.141838  1 Cwid
    5.100000   30.322651  123.141838  1 Cwid
    5.100000   27.813442  124.590508  1 Cwid
    5.100000   30.322651  124.590508  1 Cwid
    5.100000   29.068081  125.314911  1 Cwid
    5.100000   31.577293  125.314911  1 Cwid
    5.100000   32.831860  123.141838  1 Cwid
    5.100000   35.341072  123.141838  1 Cwid
    5.100000   32.831860  124.590508  1 Cwid
    5.100000   35.341072  124.590508  1 Cwid
    5.100000   34.086502  125.314911  1 Cwid
    5.100000   24.049662  126.763573  1 Cwid
    5.100000   26.558872  126.763573  1 Cwid
    5.100000   25.304302  127.487984  1 Cwid
    5.100000   25.304302  128.936646  1 Cwid
    5.100000   24.049662  129.660934  1 Cwid
    5.100000   26.558872  129.660934  1 Cwid
    5.100000   29.068081  126.763573  1 Cwid
    5.100000   31.577293  126.763573  1 Cwid
    5.100000   27.813442  127.487984  1 Cwid
    5.100000   30.322651  127.487984  1 Cwid
    5.100000   27.813442  128.936646  1 Cwid
    5.100000   30.322651  128.936646  1 Cwid
    5.100000   29.068081  129.660934  1 Cwid
    5.100000   31.577293  129.660934  1 Cwid
    5.100000   34.086502  126.763573  1 Cwid
    5.100000   32.831860  127.487984  1 Cwid
    5.100000   35.341072  127.487984  1 Cwid
    5.100000   32.831860  128.936646  1 Cwid
    5.100000   35.341072  128.936646  1 Cwid
    5.100000   34.086502  129.660934  1 Cwid
    5.100000   36.595638    0.727845  1 Cwid
    5.100000   39.104851    0.727845  1 Cwid
    5.100000   37.850281    1.452193  1 Cwid
    5.100000   37.850281    2.900878  1 Cwid
    5.100000   41.614059    0.727845  1 Cwid
    5.100000   40.359493    1.452193  1 Cwid
    5.100000   42.868702    1.452193  1 Cwid
    5.100000   40.359493    2.900878  1 Cwid
    5.100000   42.868702    2.900878  1 Cwid
    5.100000   44.123276    0.727845  1 Cwid
    5.100000   46.632481    0.727845  1 Cwid
    5.100000   45.377838    1.452193  1 Cwid
    5.100000   45.377838    2.900878  1 Cwid
    5.100000   36.595638    3.625214  1 Cwid
    5.100000   39.104851    3.625214  1 Cwid
    5.100000   36.595638    5.073900  1 Cwid
    5.100000   39.104851    5.073900  1 Cwid
    5.100000   37.850281    5.798248  1 Cwid
    5.100000   41.614059    3.625214  1 Cwid
    5.100000   41.614059    5.073900  1 Cwid
    5.100000   40.359493    5.798248  1 Cwid
    5.100000   42.868702    5.798248  1 Cwid
    5.100000   44.123276    3.625214  1 Cwid
    5.100000   46.632481    3.625214  1 Cwid
    5.100000   44.123276    5.073900  1 Cwid
    5.100000   46.632481    5.073900  1 Cwid
    5.100000   45.377838    5.798248  1 Cwid
    5.100000   37.850281    7.246933  1 Cwid
    5.100000   36.595638    7.971283  1 Cwid
    5.100000   39.104851    7.971283  1 Cwid
    5.100000   36.595638    9.419968  1 Cwid
    5.100000   39.104851    9.419968  1 Cwid
    5.100000   37.850281   10.144304  1 Cwid
    5.100000   40.359493    7.246933  1 Cwid
    5.100000   42.868702    7.246933  1 Cwid
    5.100000   41.614059    7.971283  1 Cwid
    5.100000   41.614059    9.419968  1 Cwid
    5.100000   40.359493   10.144304  1 Cwid
    5.100000   42.868702   10.144304  1 Cwid
    5.100000   45.377838    7.246933  1 Cwid
    5.100000   44.123276    7.971283  1 Cwid
    5.100000   46.632481    7.971283  1 Cwid
    5.100000   44.123276    9.419968  1 Cwid
    5.100000   46.632481    9.419968  1 Cwid
    5.100000   45.377838   10.144304  1 Cwid
    5.100000   37.850281   11.592989  1 Cwid
    5.100000   36.595638   12.317338  1 Cwid
    5.100000   39.104851   12.317338  1 Cwid
    5.100000   36.595638   13.765971  1 Cwid
    5.100000   39.104851   13.765971  1 Cwid
    5.100000   40.359493   11.592989  1 Cwid
    5.100000   42.868702   11.592989  1 Cwid
    5.100000   41.614059   12.317338  1 Cwid
    5.100000   41.614059   13.765971  1 Cwid
    5.100000   45.377838   11.592989  1 Cwid
    5.100000   44.123276   12.317338  1 Cwid
    5.100000   46.632481   12.317338  1 Cwid
    5.100000   44.123276   13.765971  1 Cwid
    5.100000   46.632481   13.765971  1 Cwid
    5.100000   37.850281   14.490373  1 Cwid
    5.100000   37.850281   15.939045  1 Cwid
    5.100000   36.595638   16.663446  1 Cwid
    5.100000   39.104851   16.663446  1 Cwid
    5.100000   40.359493   14.490373  1 Cwid
    5.100000   42.868702   14.490373  1 Cwid
    5.100000   40.359493   15.939045  1 Cwid
    5.100000   42.868702   15.939045  1 Cwid
    5.100000   41.614059   16.663446  1 Cwid
    5.100000   45.377838   14.490373  1 Cwid
    5.100000   45.377838   15.939045  1 Cwid
    5.100000   44.123276   16.663446  1 Cwid
    5.100000   46.632481   16.663446  1 Cwid
    5.100000   36.595638   18.112118  1 Cwid
    5.100000   39.104851   18.112118  1 Cwid
    5.100000   37.850281   18.836391  1 Cwid
    5.100000   37.850281   20.285061  1 Cwid
    5.100000   36.595638   21.009462  1 Cwid
    5.100000   39.104851   21.009462  1 Cwid
    5.100000   41.614059   18.112118  1 Cwid
    5.100000   40.359493   18.836391  1 Cwid
    5.100000   42.868702   18.836391  1 Cwid
    5.100000   40.359493   20.285061  1 Cwid
    5.100000   42.868702   20.285061  1 Cwid
    5.100000   41.614059   21.009462  1 Cwid
    5.100000   44.123276   18.112118  1 Cwid
    5.100000   46.632481   18.112118  1 Cwid
    5.100000   45.377838   18.836391  1 Cwid
    5.100000   45.377838   20.285061  1 Cwid
    5.100000   44.123276   21.009462  1 Cwid
    5.100000   46.632481   21.009462  1 Cwid
    5.100000   36.595638  109.379387  1 Cwid
    5.100000   39.104851  109.379387  1 Cwid
    5.100000   37.850281  110.103645  1 Cwid
    5.100000   37.850281  111.552330  1 Cwid
    5.100000   41.614059  109.379387  1 Cwid
    5.100000   40.359493  110.103645  1 Cwid
    5.100000   42.868702  110.103645  1 Cwid
    5.100000   40.359493  111.552330  1 Cwid
    5.100000   42.868702  111.552330  1 Cwid
    5.100000   44.123276  109.379387  1 Cwid
    5.100000   46.632481  109.379387  1 Cwid
    5.100000   45.377838  110.103645  1 Cwid
    5.100000   45.377838  111.552330  1 Cwid
    5.100000   36.595638  112.276726  1 Cwid
    5.100000   39.104851  112.276726  1 Cwid
    5.100000   36.595638  113.725395  1 Cwid
    5.100000   39.104851  113.725395  1 Cwid
    5.100000   37.850281  114.449799  1 Cwid
    5.100000   41.614059  112.276726  1 Cwid
    5.100000   41.614059  113.725395  1 Cwid
    5.100000   40.359493  114.449799  1 Cwid
    5.100000   42.868702  114.449799  1 Cwid
    5.100000   44.123276  112.276726  1 Cwid
    5.100000   46.632481  112.276726  1 Cwid
    5.100000   44.123276  113.725395  1 Cwid
    5.100000   46.632481  113.725395  1 Cwid
    5.100000   45.377838  114.449799  1 Cwid
    5.100000   37.850281  115.898476  1 Cwid
    5.100000   36.595638  116.622742  1 Cwid
    5.100000   39.104851  116.622742  1 Cwid
    5.100000   36.595638  118.071419  1 Cwid
    5.100000   39.104851  118.071419  1 Cwid
    5.100000   37.850281  118.795822  1 Cwid
    5.100000   40.359493  115.898476  1 Cwid
    5.100000   42.868702  115.898476  1 Cwid
    5.100000   41.614059  116.622742  1 Cwid
    5.100000   41.614059  118.071419  1 Cwid
    5.100000   40.359493  118.795822  1 Cwid
    5.100000   42.868702  118.795822  1 Cwid
    5.100000   45.377838  115.898476  1 Cwid
    5.100000   44.123276  116.622742  1 Cwid
    5.100000   46.632481  116.622742  1 Cwid
    5.100000   44.123276  118.071419  1 Cwid
    5.100000   46.632481  118.071419  1 Cwid
    5.100000   45.377838  118.795822  1 Cwid
    5.100000   37.850281  120.244492  1 Cwid
    5.100000   36.595638  120.968895  1 Cwid
    5.100000   39.104851  120.968895  1 Cwid
    5.100000   36.595638  122.417572  1 Cwid
    5.100000   39.104851  122.417572  1 Cwid
    5.100000   40.359493  120.244492  1 Cwid
    5.100000   42.868702  120.244492  1 Cwid
    5.100000   41.614059  120.968895  1 Cwid
    5.100000   41.614059  122.417572  1 Cwid
    5.100000   45.377838  120.244492  1 Cwid
    5.100000   44.123276  120.968895  1 Cwid
    5.100000   46.632481  120.968895  1 Cwid
    5.100000   44.123276  122.417572  1 Cwid
    5.100000   46.632481  122.417572  1 Cwid
    5.100000   37.850281  123.141838  1 Cwid
    5.100000   37.850281  124.590508  1 Cwid
    5.100000   36.595638  125.314911  1 Cwid
    5.100000   39.104851  125.314911  1 Cwid
    5.100000   40.359493  123.141838  1 Cwid
    5.100000   42.868702  123.141838  1 Cwid
    5.100000   40.359493  124.590508  1 Cwid
    5.100000   42.868702  124.590508  1 Cwid
    5.100000   41.614059  125.314911  1 Cwid
    5.100000   45.377838  123.141838  1 Cwid
    5.100000   45.377838  124.590508  1 Cwid
    5.100000   44.123276  125.314911  1 Cwid
    5.100000   46.632481  125.314911  1 Cwid
    5.100000   36.595638  126.763573  1 Cwid
    5.100000   39.104851  126.763573  1 Cwid
    5.100000   37.850281  127.487984  1 Cwid
    5.100000   37.850281  128.936646  1 Cwid
    5.100000   36.595638  129.660934  1 Cwid
    5.100000   39.104851  129.660934  1 Cwid
    5.100000   41.614059  126.763573  1 Cwid
    5.100000   40.359493  127.487984  1 Cwid
    5.100000   42.868702  127.487984  1 Cwid
    5.100000   40.359493  128.936646  1 Cwid
    5.100000   42.868702  128.936646  1 Cwid
    5.100000   41.614059  129.660934  1 Cwid
    5.100000   44.123276  126.763573  1 Cwid
    5.100000   46.632481  126.763573  1 Cwid
    5.100000   45.377838  127.487984  1 Cwid
    5.100000   45.377838  128.936646  1 Cwid
    5.100000   44.123276  129.660934  1 Cwid
    5.100000   46.632481  129.660934  1 Cwid
    5.100000   49.141693    0.727845  1 Cwid
    5.100000   47.887051    1.452193  1 Cwid
    5.100000   50.396259    1.452193  1 Cwid
    5.100000   47.887051    2.900878  1 Cwid
    5.100000   50.396259    2.900878  1 Cwid
    5.100000   51.650829    0.727845  1 Cwid
    5.100000   54.160046    0.727845  1 Cwid
    5.100000   52.905472    1.452193  1 Cwid
    5.100000   55.414684    1.452193  1 Cwid
    5.100000   52.905472    2.900878  1 Cwid
    5.100000   55.414684    2.900878  1 Cwid
    5.100000   56.669250    0.727845  1 Cwid
    5.100000   59.178463    0.727845  1 Cwid
    5.100000   57.923889    1.452193  1 Cwid
    5.100000   57.923889    2.900878  1 Cwid
    5.100000   49.141693    3.625214  1 Cwid
    5.100000   49.141693    5.073900  1 Cwid
    5.100000   47.887051    5.798248  1 Cwid
    5.100000   50.396259    5.798248  1 Cwid
    5.100000   51.650829    3.625214  1 Cwid
    5.100000   54.160046    3.625214  1 Cwid
    5.100000   51.650829    5.073900  1 Cwid
    5.100000   54.160046    5.073900  1 Cwid
    5.100000   52.905472    5.798248  1 Cwid
    5.100000   55.414684    5.798248  1 Cwid
    5.100000   56.669250    3.625214  1 Cwid
    5.100000   59.178463    3.625214  1 Cwid
    5.100000   56.669250    5.073900  1 Cwid
    5.100000   59.178463    5.073900  1 Cwid
    5.100000   57.923889    5.798248  1 Cwid
    5.100000   47.887051    7.246933  1 Cwid
    5.100000   50.396259    7.246933  1 Cwid
    5.100000   49.141693    7.971283  1 Cwid
    5.100000   49.141693    9.419968  1 Cwid
    5.100000   47.887051   10.144304  1 Cwid
    5.100000   50.396259   10.144304  1 Cwid
    5.100000   52.905472    7.246933  1 Cwid
    5.100000   55.414684    7.246933  1 Cwid
    5.100000   51.650829    7.971283  1 Cwid
    5.100000   54.160046    7.971283  1 Cwid
    5.100000   51.650829    9.419968  1 Cwid
    5.100000   54.160046    9.419968  1 Cwid
    5.100000   52.905472   10.144304  1 Cwid
    5.100000   55.414684   10.144304  1 Cwid
    5.100000   57.923889    7.246933  1 Cwid
    5.100000   56.669250    7.971283  1 Cwid
    5.100000   59.178463    7.971283  1 Cwid
    5.100000   56.669250    9.419968  1 Cwid
    5.100000   59.178463    9.419968  1 Cwid
    5.100000   57.923889   10.144304  1 Cwid
    5.100000   47.887051   11.592989  1 Cwid
    5.100000   50.396259   11.592989  1 Cwid
    5.100000   49.141693   12.317338  1 Cwid
    5.100000   49.141693   13.765971  1 Cwid
    5.100000   52.905472   11.592989  1 Cwid
    5.100000   55.414684   11.592989  1 Cwid
    5.100000   51.650829   12.317338  1 Cwid
    5.100000   54.160046   12.317338  1 Cwid
    5.100000   51.650829   13.765971  1 Cwid
    5.100000   54.160046   13.765971  1 Cwid
    5.100000   57.923889   11.592989  1 Cwid
    5.100000   56.669250   12.317338  1 Cwid
    5.100000   59.178463   12.317338  1 Cwid
    5.100000   56.669250   13.765971  1 Cwid
    5.100000   59.178463   13.765971  1 Cwid