%block AtomicCoordinatesAndAtomicSpecies
    5.000000   11.278120    0.713573  1 C
    5.000000   10.048150    1.423718  1 C
    5.000000   10.048150    2.843998  1 C
    5.000000   11.278120    3.554132  1 C
    5.000000   11.278120    4.974411  1 C
    5.000000   10.048150    5.684557  1 C
    5.000000   10.048150    7.104837  1 C
    5.000000   11.278120    7.814983  1 C
    5.000000   11.278120    9.235263  1 C
    5.000000   10.048150    9.945396  1 C
    5.000000   10.048150   11.365676  1 C
    5.000000   11.278120   12.075822  1 C
    5.000000   11.278120   13.496051  1 C
    5.000000   10.048150   14.206248  1 C
    5.000000   10.048150   15.626515  1 C
    5.000000   11.278120   16.336712  1 C
    5.000000   11.278120   17.756979  1 C
    5.000000   10.048150   18.467051  1 C
    5.000000   10.048150   19.887316  1 C
    5.000000   11.278120   20.597513  1 C
    5.000000   11.278120  107.234695  1 C
    5.000000   10.048150  107.944756  1 C
    5.000000   10.048150  109.365028  1 C
    5.000000   11.278120  110.075226  1 C
    5.000000   11.278120  111.495491  1 C
    5.000000   10.048150  112.205688  1 C
    5.000000   10.048150  113.625961  1 C
    5.000000   11.278120  114.336021  1 C
    5.000000   11.278120  115.756294  1 C
    5.000000   10.048150  116.466492  1 C
    5.000000   10.048150  117.886757  1 C
    5.000000   11.278120  118.596954  1 C
    5.000000   11.278120  120.017227  1 C
    5.000000   10.048150  120.727295  1 C
    5.000000   10.048150  122.147560  1 C
    5.000000   11.278120  122.857758  1 C
    5.000000   11.278120  124.278015  1 C
    5.000000   10.048150  124.988220  1 C
    5.000000   10.048150  126.408485  1 C
    5.000000   11.278120  127.118561  1 C
    5.000000   13.738131    0.713573  1 C
    5.000000   12.508090    1.423718  1 C
    5.000000   14.968100    1.423718  1 C
    5.000000   12.508090    2.843998  1 C
    5.000000   14.968100    2.843998  1 C
    5.000000   16.198139    0.713573  1 C
    5.000000   18.658150    0.713573  1 C
    5.000000   17.428110    1.423718  1 C
    5.000000   17.428110    2.843998  1 C
    5.000000   21.118090    0.713573  1 C
    5.000000   19.888121    1.423718  1 C
    5.000000   22.348129    1.423718  1 C
    5.000000   19.888121    2.843998  1 C
    5.000000   22.348129    2.843998  1 C
    5.000000   13.738131    3.554132  1 C
    5.000000   13.738131    4.974411  1 C
    5.000000   12.508090    5.684557  1 C
    5.000000   14.968100    5.684557  1 C
    5.000000   16.198139    3.554132  1 C
    5.000000   18.658150    3.554132  1 C
    5.000000   16.198139    4.974411  1 C
    5.000000   18.658150    4.974411  1 C
    5.000000   17.428110    5.684557  1 C
    5.000000   21.118090    3.554132  1 C
    5.000000   21.118090    4.974411  1 C
    5.000000   19.888121    5.684557  1 C
    5.000000   22.348129    5.684557  1 C
    5.000000   12.508090    7.104837  1 C
    5.000000   14.968100    7.104837  1 C
    5.000000   13.738131    7.814983  1 C
    5.000000   13.738131    9.235263  1 C
    5.000000   12.508090    9.945396  1 C
    5.000000   14.968100    9.945396  1 C
    5.000000   17.428110    7.104837  1 C
    5.000000   16.198139    7.814983  1 C
    5.000000   18.658150    7.814983  1 C
    5.000000   16.198139    9.235263  1 C
    5.000000   18.658150    9.235263  1 C
    5.000000   17.428110    9.945396  1 C
    5.000000   19.888121    7.104837  1 C
    5.000000   22.348129    7.104837  1 C
    5.000000   21.118090    7.814983  1 C
    5.000000   21.118090    9.235263  1 C
    5.000000   19.888121    9.945396  1 C
    5.000000   22.348129    9.945396  1 C
    5.000000   12.508090   11.365676  1 C
    5.000000   14.968100   11.365676  1 C
    5.000000   13.738131   12.075822  1 C
    5.000000   13.738131   13.496051  1 C
    5.000000   17.428110   11.365676  1 C
    5.000000   16.198139   12.075822  1 C
    5.000000   18.658150   12.075822  1 C
    5.000000   16.198139   13.496051  1 C
    5.000000   18.658150   13.496051  1 C
    5.000000   19.888121   11.365676  1 C
    5.000000   22.348129   11.365676  1 C
    5.000000   21.118090   12.075822  1 C
    5.000000   21.118090   13.496051  1 C
    5.000000   12.508090   14.206248  1 C
    5.000000   14.968100   14.206248  1 C
    5.000000   12.508090   15.626515  1 C
    5.000000   14.968100   15.626515  1 C
    5.000000   13.738131   16.336712  1 C
    5.000000   17.428110   14.206248  1 C
    5.000000   17.428110   15.626515  1 C
    5.000000   16.198139   16.336712  1 C
    5.000000   18.658150   16.336712  1 C
    5.000000   19.888121   14.206248  1 C
    5.000000   22.348129   14.206248  1 C
    5.000000   19.888121   15.626515  1 C
    5.000000   22.348129   15.626515  1 C
    5.000000   21.118090   16.336712  1 C
    5.000000   13.738131   17.756979  1 C
    5.000000   12.508090   18.467051  1 C
    5.000000   14.968100   18.467051  1 C
    5.000000   12.508090   19.887316  1 C
    5.000000   14.968100   19.887316  1 C
    5.000000   13.738131   20.597513  1 C
    5.000000   16.198139   17.756979  1 C
    5.000000   18.658150   17.756979  1 C
    5.000000   17.428110   18.467051  1 C
    5.000000   17.428110   19.887316  1 C
    5.000000   16.198139   20.597513  1 C
    5.000000   18.658150   20.597513  1 C
    5.000000   21.118090   17.756979  1 C
    5.000000   19.888121   18.467051  1 C
    5.000000   22.348129   18.467051  1 C
    5.000000   19.888121   19.887316  1 C
    5.000000   22.348129   19.887316  1 C
    5.000000   21.118090   20.597513  1 C
    5.000000   13.738131  107.234695  1 C
    5.000000   12.508090  107.944756  1 C
    5.000000   14.968100  107.944756  1 C
    5.000000   12.508090  109.365028  1 C
    5.000000   14.968100  109.365028  1 C
    5.000000   16.198139  107.234695  1 C
    5.000000   18.658150  107.234695  1 C
    5.000000   17.428110  107.944756  1 C
    5.000000   17.428110  109.365028  1 C
    5.000000   21.118090  107.234695  1 C
    5.000000   19.888121  107.944756  1 C
    5.000000   22.348129  107.944756  1 C
    5.000000   19.888121  109.365028  1 C
    5.000000   22.348129  109.365028  1 C
    5.000000   13.738131  110.075226  1 C
    5.000000   13.738131  111.495491  1 C
    5.000000   12.508090  112.205688  1 C
    5.000000   14.968100  112.205688  1 C
    5.000000   16.198139  110.075226  1 C
    5.000000   18.658150  110.075226  1 C
    5.000000   16.198139  111.495491  1 C
    5.000000   18.658150  111.495491  1 C
    5.000000   17.428110  112.205688  1 C
    5.000000   21.118090  110.075226  1 C
    5.000000   21.118090  111.495491  1 C
    5.000000   19.888121  112.205688  1 C
    5.000000   22.348129  112.205688  1 C
    5.000000   12.508090  113.625961  1 C
    5.000000   14.968100  113.625961  1 C
    5.000000   13.738131  114.336021  1 C
    5.000000   13.738131  115.756294  1 C
    5.000000   12.508090  116.466492  1 C
    5.000000   14.968100  116.466492  1 C
    5.000000   17.428110  113.625961  1 C
    5.000000   16.198139  114.336021  1 C
    5.000000   18.658150  114.336021  1 C
    5.000000   16.198139  115.756294  1 C
    5.000000   18.658150  115.756294  1 C
    5.000000   17.428110  116.466492  1 C
    5.000000   19.888121  113.625961  1 C
    5.000000   22.348129  113.625961  1 C
    5.000000   21.118090  114.336021  1 C
    5.000000   21.118090  115.756294  1 C
    5.000000   19.888121  116.466492  1 C
    5.000000   22.348129  116.466492  1 C
    5.000000   12.508090  117.886757  1 C
    5.000000   14.968100  117.886757  1 C
    5.000000   13.738131  118.596954  1 C
    5.000000   13.738131  120.017227  1 C
    5.000000   17.428110  117.886757  1 C
    5.000000   16.198139  118.596954  1 C
    5.000000   18.658150  118.596954  1 C
    5.000000   16.198139  120.017227  1 C
    5.000000   18.658150  120.017227  1 C
    5.000000   19.888121  117.886757  1 C
    5.000000   22.348129  117.886757  1 C
    5.000000   21.118090  118.596954  1 C
    5.000000   21.118090  120.017227  1 C
    5.000000   12.508090  120.727295  1 C
    5.000000   14.968100  120.727295  1 C
    5.000000   12.508090  122.147560  1 C
    5.000000   14.968100  122.147560  1 C
    5.000000   13.738131  122.857758  1 C
    5.000000   17.428110  120.727295  1 C
    5.000000   17.428110  122.147560  1 C
    5.000000   16.198139  122.857758  1 C
    5.000000   18.658150  122.857758  1 C
    5.000000   19.888121  120.727295  1 C
    5.000000   22.348129  120.727295  1 C
    5.000000   19.888121  122.147560  1 C
    5.000000   22.348129  122.147560  1 C
    5.000000   21.118090  122.857758  1 C
    5.000000   13.738131  124.278015  1 C
    5.000000   12.508090  124.988220  1 C
    5.000000   14.968100  124.988220  1 C
    5.000000   12.508090  126.408485  1 C
    5.000000   14.968100  126.408485  1 C
    5.000000   13.738131  127.118561  1 C
    5.000000   16.198139  124.278015  1 C
    5.000000   18.658150  124.278015  1 C
    5.000000   17.428110  124.988220  1 C
    5.000000   17.428110  126.408485  1 C
    5.000000   16.198139  127.118561  1 C
    5.000000   18.658150  127.118561  1 C
    5.000000   21.118090  124.278015  1 C
    5.000000   19.888121  124.988220  1 C
    5.000000   22.348129  124.988220  1 C
    5.000000   19.888121  126.408485  1 C
    5.000000   22.348129  126.408485  1 C
    5.000000   21.118090  127.118561  1 C
    5.000000   23.578100    0.713573  1 C
    5.000000   26.038111    0.713573  1 C
    5.000000   24.808140    1.423718  1 C
    5.000000   24.808140    2.843998  1 C
    5.000000   28.498119    0.713573  1 C
    5.000000   30.958132    0.713573  1 C
    5.000000   27.268082    1.423718  1 C
    5.000000   29.728090    1.423718  1 C
    5.000000   27.268082    2.843998  1 C
    5.000000   29.728090    2.843998  1 C
    5.000000   33.418140    0.713573  1 C
    5.000000   32.188099    1.423718  1 C
    5.000000   34.648109    1.423718  1 C
    5.000000   32.188099    2.843998  1 C
    5.000000   34.648109    2.843998  1 C
    5.000000   23.578100    3.554132  1 C
    5.000000   26.038111    3.554132  1 C
    5.000000   23.578100    4.974411  1 C
    5.000000   26.038111    4.974411  1 C
    5.000000   24.808140    5.684557  1 C
    5.000000   28.498119    3.554132  1 C
    5.000000   30.958132    3.554132  1 C
    5.000000   28.498119    4.974411  1 C
    5.000000   30.958132    4.974411  1 C
    5.000000   27.268082    5.684557  1 C
    5.000000   29.728090    5.684557  1 C
    5.000000   33.418140    3.554132  1 C
    5.000000   33.418140    4.974411  1 C
    5.000000   32.188099    5.684557  1 C
    5.000000   34.648109    5.684557  1 C
    5.000000   24.808140    7.104837  1 C
    5.000000   23.578100    7.814983  1 C
    5.000000   26.038111    7.814983  1 C
    5.000000   23.578100    9.235263  1 C
    5.000000   26.038111    9.235263  1 C
    5.000000   24.808140    9.945396  1 C
    5.000000   27.268082    7.104837  1 C
    5.000000   29.728090    7.104837  1 C
    5.000000   28.498119    7.814983  1 C
    5.000000   30.958132    7.814983  1 C
    5.000000   28.498119    9.235263  1 C
    5.000000   30.958132    9.235263  1 C
    5.000000   27.268082    9.945396  1 C
    5.000000   29.728090    9.945396  1 C
    5.000000   32.188099    7.104837  1 C
    5.000000   34.648109    7.104837  1 C
    5.000000   33.418140    7.814983  1 C
    5.000000   33.418140    9.235263  1 C
    5.000000   32.188099    9.945396  1 C
    5.000000   34.648109    9.945396  1 C
    5.000000   24.808140   11.365676  1 C
    5.000000   23.578100   12.075822  1 C
    5.000000   26.038111   12.075822  1 C
    5.000000   23.578100   13.496051  1 C
    5.000000   26.038111   13.496051  1 C
    5.000000   27.268082   11.365676  1 C
    5.000000   29.728090   11.365676  1 C
    5.000000   28.498119   12.075822  1 C
    5.000000   30.958132   12.075822  1 C
    5.000000   28.498119   13.496051  1 C
    5.000000   30.958132   13.496051  1 C
    5.000000   32.188099   11.365676  1 C
    5.000000   34.648109   11.365676  1 C
    5.000000   33.418140   12.075822  1 C
    5.000000   33.418140   13.496051  1 C
    5.000000   24.808140   14.206248  1 C
    5.000000   24.808140   15.626515  1 C
    5.000000   23.578100   16.336712  1 C
    5.000000   26.038111   16.336712  1 C
    5.000000   27.268082   14.206248  1 C
    5.000000   29.728090   14.206248  1 C
    5.000000   27.268082   15.626515  1 C
    5.000000   29.728090   15.626515  1 C
    5.000000   28.498119   16.336712  1 C
    5.000000   30.958132   16.336712  1 C
    5.000000   32.188099   14.206248  1 C
    5.000000   34.648109   14.206248  1 C
    5.000000   32.188099   15.626515  1 C
    5.000000   34.648109   15.626515  1 C
    5.000000   33.418140   16.336712  1 C
    5.000000   23.578100   17.756979  1 C
    5.000000   26.038111   17.756979  1 C
    5.000000   24.808140   18.467051  1 C
    5.000000   24.808140   19.887316  1 C
    5.000000   23.578100   20.597513  1 C
    5.000000   26.038111   20.597513  1 C
    5.000000   28.498119   17.756979  1 C
    5.000000   30.958132   17.756979  1 C
    5.000000   27.268082   18.467051  1 C
    5.000000   29.728090   18.467051  1 C
    5.000000   27.268082   19.887316  1 C
    5.000000   29.728090   19.887316  1 C
    5.000000   28.498119   20.597513  1 C
    5.000000   30.958132   20.597513  1 C
    5.000000   33.418140   17.756979  1 C
    5.000000   32.188099   18.467051  1 C
    5.000000   34.648109   18.467051  1 C
    5.000000   32.188099   19.887316  1 C
    5.000000   34.648109   19.887316  1 C
    5.000000   33.418140   20.597513  1 C
    5.000000   23.578100  107.234695  1 C
    5.000000   26.038111  107.234695  1 C
    5.000000   24.808140  107.944756  1 C
    5.000000   24.808140  109.365028  1 C
    5.000000   28.498119  107.234695  1 C
    5.000000   30.958132  107.234695  1 C
    5.000000   27.268082  107.944756  1 C
    5.000000   29.728090  107.944756  1 C
    5.000000   27.268082  109.365028  1 C
    5.000000   29.728090  109.365028  1 C
    5.000000   33.418140  107.234695  1 C
    5.000000   32.188099  107.944756  1 C
    5.000000   34.648109  107.944756  1 C
    5.000000   32.188099  109.365028  1 C
    5.000000   34.648109  109.365028  1 C
    5.000000   23.578100  110.075226  1 C
    5.000000   26.038111  110.075226  1 C
    5.000000   23.578100  111.495491  1 C
    5.000000   26.038111  111.495491  1 C
    5.000000   24.808140  112.205688  1 C
    5.000000   28.498119  110.075226  1 C
    5.000000   30.958132  110.075226  1 C
    5.000000   28.498119  111.495491  1 C
    5.000000   30.958132  111.495491  1 C
    5.000000   27.268082  112.205688  1 C
    5.000000   29.728090  112.205688  1 C
    5.000000   33.418140  110.075226  1 C
    5.000000   33.418140  111.495491  1 C
    5.000000   32.188099  112.205688  1 C
    5.000000   34.648109  112.205688  1 C
    5.000000   24.808140  113.625961  1 C
    5.000000   23.578100  114.336021  1 C
    5.000000   26.038111  114.336021  1 C
    5.000000   23.578100  115.756294  1 C
    5.000000   26.038111  115.756294  1 C
    5.000000   24.808140  116.466492  1 C
    5.000000   27.268082  113.625961  1 C
    5.000000   29.728090  113.625961  1 C
    5.000000   28.498119  114.336021  1 C
    5.000000   30.958132  114.336021  1 C
    5.000000   28.498119  115.756294  1 C
    5.000000   30.958132  115.756294  1 C
    5.000000   27.268082  116.466492  1 C
    5.000000   29.728090  116.466492  1 C
    5.000000   32.188099  113.625961  1 C
    5.000000   34.648109  113.625961  1 C
    5.000000   33.418140  114.336021  1 C
    5.000000   33.418140  115.756294  1 C
    5.000000   32.188099  116.466492  1 C
    5.000000   34.648109  116.466492  1 C
    5.000000   24.808140  117.886757  1 C
    5.000000   23.578100  118.596954  1 C
    5.000000   26.038111  118.596954  1 C
    5.000000   23.578100  120.017227  1 C
    5.000000   26.038111  120.017227  1 C
    5.000000   27.268082  117.886757  1 C
    5.000000   29.728090  117.886757  1 C
    5.000000   28.498119  118.596954  1 C
    5.000000   30.958132  118.596954  1 C
    5.000000   28.498119  120.017227  1 C
    5.000000   30.958132  120.017227  1 C
    5.000000   32.188099  117.886757  1 C
    5.000000   34.648109  117.886757  1 C
    5.000000   33.418140  118.596954  1 C
    5.000000   33.418140  120.017227  1 C
    5.000000   24.808140  120.727295  1 C
    5.000000   24.808140  122.147560  1 C
    5.000000   23.578100  122.857758  1 C
    5.000000   26.038111  122.857758  1 C
    5.000000   27.268082  120.727295  1 C
    5.000000   29.728090  120.727295  1 C
    5.000000   27.268082  122.147560  1 C
    5.000000   29.728090  122.147560  1 C
    5.000000   28.498119  122.857758  1 C
    5.000000   30.958132  122.857758  1 C
    5.000000   32.188099  120.727295  1 C
    5.000000   34.648109  120.727295  1 C
    5.000000   32.188099  122.147560  1 C
    5.000000   34.648109  122.147560  1 C
    5.000000   33.418140  122.857758  1 C
    5.000000   23.578100  124.278015  1 C
    5.000000   26.038111  124.278015  1 C
    5.000000   24.808140  124.988220  1 C
    5.000000   24.808140  126.408485  1 C
    5.000000   23.578100  127.118561  1 C
    5.000000   26.038111  127.118561  1 C
    5.000000   28.498119  124.278015  1 C
    5.000000   30.958132  124.278015  1 C
    5.000000   27.268082  124.988220  1 C
    5.000000   29.728090  124.988220  1 C
    5.000000   27.268082  126.408485  1 C
    5.000000   29.728090  126.408485  1 C
    5.000000   28.498119  127.118561  1 C
    5.000000   30.958132  127.118561  1 C
    5.000000   33.418140  124.278015  1 C
    5.000000   32.188099  124.988220  1 C
    5.000000   34.648109  124.988220  1 C
    5.000000   32.188099  126.408485  1 C
    5.000000   34.648109  126.408485  1 C
    5.000000   33.418140  127.118561  1 C
    5.000000   35.878078    0.713573  1 C
    5.000000   38.338089    0.713573  1 C
    5.000000   37.108120    1.423718  1 C
    5.000000   37.108120    2.843998  1 C
    5.000000   40.798100    0.713573  1 C
    5.000000   39.568130    1.423718  1 C
    5.000000   42.028141    1.423718  1 C
    5.000000   39.568130    2.843998  1 C
    5.000000   42.028141    2.843998  1 C
    5.000000   43.258114    0.713573  1 C
    5.000000   45.718121    0.713573  1 C
    5.000000   44.488079    1.423718  1 C
    5.000000   44.488079    2.843998  1 C
    5.000000   35.878078    3.554132  1 C
    5.000000   38.338089    3.554132  1 C
    5.000000   35.878078    4.974411  1 C
    5.000000   38.338089    4.974411  1 C
    5.000000   37.108120    5.684557  1 C
    5.000000   40.798100    3.554132  1 C
    5.000000   40.798100    4.974411  1 C
    5.000000   39.568130    5.684557  1 C
    5.000000   42.028141    5.684557  1 C
    5.000000   43.258114    3.554132  1 C
    5.000000   45.718121    3.554132  1 C
    5.000000   43.258114    4.974411  1 C
    5.000000   45.718121    4.974411  1 C
    5.000000   44.488079    5.684557  1 C
    5.000000   37.108120    7.104837  1 C
    5.000000   35.878078    7.814983  1 C
    5.000000   38.338089    7.814983  1 C
    5.000000   35.878078    9.235263  1 C
    5.000000   38.338089    9.235263  1 C
    5.000000   37.108120    9.945396  1 C
    5.000000   39.568130    7.104837  1 C
    5.000000   42.028141    7.104837  1 C
    5.000000   40.798100    7.814983  1 C
    5.000000   40.798100    9.235263  1 C
    5.000000   39.568130    9.945396  1 C
    5.000000   42.028141    9.945396  1 C
    5.000000   44.488079    7.104837  1 C
    5.000000   43.258114    7.814983  1 C
    5.000000   45.718121    7.814983  1 C
    5.000000   43.258114    9.235263  1 C
    5.000000   45.718121    9.235263  1 C
    5.000000   44.488079    9.945396  1 C
    5.000000   37.108120   11.365676  1 C
    5.000000   35.878078   12.075822  1 C
    5.000000   38.338089   12.075822  1 C
    5.000000   35.878078   13.496051  1 C
    5.000000   38.338089   13.496051  1 C
    5.000000   39.568130   11.365676  1 C
    5.000000   42.028141   11.365676  1 C
    5.000000   40.798100   12.075822  1 C
    5.000000   40.798100   13.496051  1 C
    5.000000   44.488079   11.365676  1 C
    5.000000   43.258114   12.075822  1 C
    5.000000   45.718121   12.075822  1 C
    5.000000   43.258114   13.496051  1 C
    5.000000   45.718121   13.496051  1 C
    5.000000   37.108120   14.206248  1 C
    5.000000   37.108120   15.626515  1 C
    5.000000   35.878078   16.336712  1 C
    5.000000   38.338089   16.336712  1 C
    5.000000   39.568130   14.206248  1 C
    5.000000   42.028141   14.206248  1 C
    5.000000   39.568130   15.626515  1 C
    5.000000   42.028141   15.626515  1 C
    5.000000   40.798100   16.336712  1 C
    5.000000   44.488079   14.206248  1 C
    5.000000   44.488079   15.626515  1 C
    5.000000   43.258114   16.336712  1 C
    5.000000   45.718121   16.336712  1 C
    5.000000   35.878078   17.756979  1 C
    5.000000   38.338089   17.756979  1 C
    5.000000   37.108120   18.467051  1 C
    5.000000   37.108120   19.887316  1 C
    5.000000   35.878078   20.597513  1 C
    5.000000   38.338089   20.597513  1 C
    5.000000   40.798100   17.756979  1 C
    5.000000   39.568130   18.467051  1 C
    5.000000   42.028141   18.467051  1 C
    5.000000   39.568130   19.887316  1 C
    5.000000   42.028141   19.887316  1 C
    5.000000   40.798100   20.597513  1 C
    5.000000   43.258114   17.756979  1 C
    5.000000   45.718121   17.756979  1 C
    5.000000   44.488079   18.467051  1 C
    5.000000   44.488079   19.887316  1 C
    5.000000   43.258114   20.597513  1 C
    5.000000   45.718121   20.597513  1 C
    5.000000   35.878078  107.234695  1 C
    5.000000   38.338089  107.234695  1 C
    5.000000   37.108120  107.944756  1 C
    5.000000   37.108120  109.365028  1 C
    5.000000   40.798100  107.234695  1 C
    5.000000   39.568130  107.944756  1 C
    5.000000   42.028141  107.944756  1 C
    5.000000   39.568130  109.365028  1 C
    5.000000   42.028141  109.365028  1 C
    5.000000   43.258114  107.234695  1 C
    5.000000   45.718121  107.234695  1 C
    5.000000   44.488079  107.944756  1 C
    5.000000   44.488079  109.365028  1 C
    5.000000   35.878078  110.075226  1 C
    5.000000   38.338089  110.075226  1 C
    5.000000   35.878078  111.495491  1 C
    5.000000   38.338089  111.495491  1 C
    5.000000   37.108120  112.205688  1 C
    5.000000   40.798100  110.075226  1 C
    5.000000   40.798100  111.495491  1 C
    5.000000   39.568130  112.205688  1 C
    5.000000   42.028141  112.205688  1 C
    5.000000   43.258114  110.075226  1 C
    5.000000   45.718121  110.075226  1 C
    5.000000   43.258114  111.495491  1 C
    5.000000   45.718121  111.495491  1 C
    5.000000   44.488079  112.205688  1 C
    5.000000   37.108120  113.625961  1 C
    5.000000   35.878078  114.336021  1 C
    5.000000   38.338089  114.336021  1 C
    5.000000   35.878078  115.756294  1 C
    5.000000   38.338089  115.756294  1 C
    5.000000   37.108120  116.466492  1 C
    5.000000   39.568130  113.625961  1 C
    5.000000   42.028141  113.625961  1 C
    5.000000   40.798100  114.336021  1 C
    5.000000   40.798100  115.756294  1 C
    5.000000   39.568130  116.466492  1 C
    5.000000   42.028141  116.466492  1 C
    5.000000   44.488079  113.625961  1 C
    5.000000   43.258114  114.336021  1 C
    5.000000   45.718121  114.336021  1 C
    5.000000   43.258114  115.756294  1 C
    5.000000   45.718121  115.756294  1 C
    5.000000   44.488079  116.466492  1 C
    5.000000   37.108120  117.886757  1 C
    5.000000   35.878078  118.596954  1 C
    5.000000   38.338089  118.596954  1 C
    5.000000   35.878078  120.017227  1 C
    5.000000   38.338089  120.017227  1 C
    5.000000   39.568130  117.886757  1 C
    5.000000   42.028141  117.886757  1 C
    5.000000   40.798100  118.596954  1 C
    5.000000   40.798100  120.017227  1 C
    5.000000   44.488079  117.886757  1 C
    5.000000   43.258114  118.596954  1 C
    5.000000   45.718121  118.596954  1 C
    5.000000   43.258114  120.017227  1 C
    5.000000   45.718121  120.017227  1 C
    5.000000   37.108120  120.727295  1 C
    5.000000   37.108120  122.147560  1 C
    5.000000   35.878078  122.857758  1 C
    5.000000   38.338089  122.857758  1 C
    5.000000   39.568130  120.727295  1 C
    5.000000   42.028141  120.727295  1 C
    5.000000   39.568130  122.147560  1 C
    5.000000   42.028141  122.147560  1 C
    5.000000   40.798100  122.857758  1 C
    5.000000   44.488079  120.727295  1 C
    5.000000   44.488079  122.147560  1 C
    5.000000   43.258114  122.857758  1 C
    5.000000   45.718121  122.857758  1 C
    5.000000   35.878078  124.278015  1 C
    5.000000   38.338089  124.278015  1 C
    5.000000   37.108120  124.988220  1 C
    5.000000   37.108120  126.408485  1 C
    5.000000   35.878078  127.118561  1 C
    5.000000   38.338089  127.118561  1 C
    5.000000   40.798100  124.278015  1 C
    5.000000   39.568130  124.988220  1 C
    5.000000   42.028141  124.988220  1 C
    5.000000   39.568130  126.408485  1 C
    5.000000   42.028141  126.408485  1 C
    5.000000   40.798100  127.118561  1 C
    5.000000   43.258114  124.278015  1 C
    5.000000   45.718121  124.278015  1 C
    5.000000   44.488079  124.988220  1 C
    5.000000   44.488079  126.408485  1 C
    5.000000   43.258114  127.118561  1 C
    5.000000   45.718121  127.118561  1 C
    5.000000   48.178131    0.713573  1 C
    5.000000   46.948090    1.423718  1 C
    5.000000   49.408100    1.423718  1 C
    5.000000   46.948090    2.843998  1 C
    5.000000   49.408100    2.843998  1 C
    5.000000   50.638069    0.713573  1 C
    5.000000   53.098083    0.713573  1 C
    5.000000   51.868111    1.423718  1 C
    5.000000   54.328121    1.423718  1 C
    5.000000   51.868111    2.843998  1 C
    5.000000   54.328121    2.843998  1 C
    5.000000   55.558090    0.713573  1 C
    5.000000   58.018101    0.713573  1 C
    5.000000   56.788128    1.423718  1 C
    5.000000   56.788128    2.843998  1 C
    5.000000   48.178131    3.554132  1 C
    5.000000   48.178131    4.974411  1 C
    5.000000   46.948090    5.684557  1 C
    5.000000   49.408100    5.684557  1 C
    5.000000   50.638069    3.554132  1 C
    5.000000   53.098083    3.554132  1 C
    5.000000   50.638069    4.974411  1 C
    5.000000   53.098083    4.974411  1 C
    5.000000   51.868111    5.684557  1 C
    5.000000   54.328121    5.684557  1 C
    5.000000   55.558090    3.554132  1 C
    5.000000   58.018101    3.554132  1 C
    5.000000   55.558090    4.974411  1 C
    5.000000   58.018101    4.974411  1 C
    5.000000   56.788128    5.684557  1 C
    5.000000   46.948090    7.104837  1 C
    5.000000   49.408100    7.104837  1 C
    5.000000   48.178131    7.814983  1 C
    5.000000   48.178131    9.235263  1 C
    5.000000   46.948090    9.945396  1 C
    5.000000   49.408100    9.945396  1 C
    5.000000   51.868111    7.104837  1 C
    5.000000   54.328121    7.104837  1 C
    5.000000   50.638069    7.814983  1 C
    5.000000   53.098083    7.814983  1 C
    5.000000   50.638069    9.235263  1 C
    5.000000   53.098083    9.235263  1 C
    5.000000   51.868111    9.945396  1 C
    5.000000   54.328121    9.945396  1 C
    5.000000   56.788128    7.104837  1 C
    5.000000   55.558090    7.814983  1 C
    5.000000   58.018101    7.814983  1 C
    5.000000   55.558090    9.235263  1 C
    5.000000   58.018101    9.235263  1 C
    5.000000   56.788128    9.945396  1 C
    5.000000   46.948090   11.365676  1 C
    5.000000   49.408100   11.365676  1 C
    5.000000   48.178131   12.075822  1 C
    5.000000   48.178131   13.496051  1 C
    5.000000   51.868111   11.365676  1 C
    5.000000   54.328121   11.365676  1 C
    5.000000   50.638069   12.075822  1 C
    5.000000   53.098083   12.075822  1 C
    5.000000   50.638069   13.496051  1 C
    5.000000   53.098083   13.496051  1 C
    5.000000   56.788128   11.365676  1 C
    5.000000   55.558090   12.075822  1 C
    5.000000   58.018101   12.075822  1 C
    5.000000   55.558090   13.496051  1 C
    5.000000   58.018101   13.496051  1 C
    5.000000   46.948090   14.206248  1 C
    5.000000   49.408100   14.206248  1 C
    5.000000   46.948090   15.626515  1 C
    5.000000   49.408100   15.626515  1 C
    5.000000   48.178131   16.336712  1 C
    5.000000   51.868111   14.206248  1 C
    5.000000   54.328121   14.206248  1 C
    5.000000   51.868111   15.626515  1 C
    5.000000   54.328121   15.626515  1 C
    5.000000   50.638069   16.336712  1 C
    5.000000   53.098083   16.336712  1 C
    5.000000   56.788128   14.206248  1 C
    5.000000   56.788128   15.626515  1 C
    5.000000   55.558090   16.336712  1 C
    5.000000   58.018101   16.336712  1 C
    5.000000   48.178131   17.756979  1 C
    5.000000   46.948090   18.467051  1 C
    5.000000   49.408100   18.467051  1 C
    5.000000   46.948090   19.887316  1 C
    5.000000   49.408100   19.887316  1 C
    5.000000   48.178131   20.597513  1 C
    5.000000   50.638069   17.756979  1 C
    5.000000   53.098083   17.756979  1 C
    5.000000   51.868111   18.467051  1 C
    5.000000   54.328121   18.467051  1 C
    5.000000   51.868111   19.887316  1 C
    5.000000   54.328121   19.887316  1 C
    5.000000   50.638069   20.597513  1 C
    5.000000   53.098083   20.597513  1 C
    5.000000   55.558090   17.756979  1 C
    5.000000   58.018101   17.756979  1 C
    5.000000   56.788128   18.467051  1 C
    5.000000   56.788128   19.887316  1 C
    5.000000   55.558090   20.597513  1 C
    5.000000   58.018101   20.597513  1 C
    5.000000   48.178131  107.234695  1 C
    5.000000   46.948090  107.944756  1 C
    5.000000   49.408100  107.944756  1 C
    5.000000   46.948090  109.365028  1 C
    5.000000   49.408100  109.365028  1 C
    5.000000   50.638069  107.234695  1 C
    5.000000   53.098083  107.234695  1 C
    5.000000   51.868111  107.944756  1 C
    5.000000   54.328121  107.944756  1 C
    5.000000   51.868111  109.365028  1 C
    5.000000   54.328121  109.365028  1 C
    5.000000   55.558090  107.234695  1 C
    5.000000   58.018101  107.234695  1 C