%block AtomicCoordinatesAndAtomicSpecies
    5.200000   11.729244    0.742116  1 Cwid
    5.200000   10.450076    1.480667  1 Cwid
    5.200000   10.450076    2.957758  1 Cwid
    5.200000   11.729244    3.696297  1 Cwid
    5.200000   11.729244    5.173388  1 Cwid
    5.200000   10.450076    5.911940  1 Cwid
    5.200000   10.450076    7.389030  1 Cwid
    5.200000   11.729244    8.127583  1 Cwid
    5.200000   11.729244    9.604673  1 Cwid
    5.200000   10.450076   10.343212  1 Cwid
    5.200000   10.450076   11.820303  1 Cwid
    5.200000   11.729244   12.558854  1 Cwid
    5.200000   11.729244   14.035892  1 Cwid
    5.200000   10.450076   14.774498  1 Cwid
    5.200000   10.450076   16.251575  1 Cwid
    5.200000   11.729244   16.990179  1 Cwid
    5.200000   11.729244   18.467257  1 Cwid
    5.200000   10.450076   19.205732  1 Cwid
    5.200000   10.450076   20.682808  1 Cwid
    5.200000   11.729244   21.421413  1 Cwid
    5.200000   11.729244  111.524078  1 Cwid
    5.200000   10.450076  112.262543  1 Cwid
    5.200000   10.450076  113.739624  1 Cwid
    5.200000   11.729244  114.478233  1 Cwid
    5.200000   11.729244  115.955307  1 Cwid
    5.200000   10.450076  116.693909  1 Cwid
    5.200000   10.450076  118.170998  1 Cwid
    5.200000   11.729244  118.909454  1 Cwid
    5.200000   11.729244  120.386543  1 Cwid
    5.200000   10.450076  121.125145  1 Cwid
    5.200000   10.450076  122.602226  1 Cwid
    5.200000   11.729244  123.340828  1 Cwid
    5.200000   11.729244  124.817909  1 Cwid
    5.200000   10.450076  125.556381  1 Cwid
    5.200000   10.450076  127.033455  1 Cwid
    5.200000   11.729244  127.772064  1 Cwid
    5.200000   11.729244  129.249130  1 Cwid
    5.200000   10.450076  129.987747  1 Cwid
    5.200000   10.450076  131.464813  1 Cwid
    5.200000   11.729244  132.203293  1 Cwid
    5.200000   14.287655    0.742116  1 Cwid
    5.200000   13.008413    1.480667  1 Cwid
    5.200000   15.566823    1.480667  1 Cwid
    5.200000   13.008413    2.957758  1 Cwid
    5.200000   15.566823    2.957758  1 Cwid
    5.200000   16.846064    0.742116  1 Cwid
    5.200000   19.404474    0.742116  1 Cwid
    5.200000   18.125235    1.480667  1 Cwid
    5.200000   18.125235    2.957758  1 Cwid
    5.200000   21.962812    0.742116  1 Cwid
    5.200000   20.683645    1.480667  1 Cwid
    5.200000   23.242054    1.480667  1 Cwid
    5.200000   20.683645    2.957758  1 Cwid
    5.200000   23.242054    2.957758  1 Cwid
    5.200000   14.287655    3.696297  1 Cwid
    5.200000   14.287655    5.173388  1 Cwid
    5.200000   13.008413    5.911940  1 Cwid
    5.200000   15.566823    5.911940  1 Cwid
    5.200000   16.846064    3.696297  1 Cwid
    5.200000   19.404474    3.696297  1 Cwid
    5.200000   16.846064    5.173388  1 Cwid
    5.200000   19.404474    5.173388  1 Cwid
    5.200000   18.125235    5.911940  1 Cwid
    5.200000   21.962812    3.696297  1 Cwid
    5.200000   21.962812    5.173388  1 Cwid
    5.200000   20.683645    5.911940  1 Cwid
    5.200000   23.242054    5.911940  1 Cwid
    5.200000   13.008413    7.389030  1 Cwid
    5.200000   15.566823    7.389030  1 Cwid
    5.200000   14.287655    8.127583  1 Cwid
    5.200000   14.287655    9.604673  1 Cwid
    5.200000   13.008413   10.343212  1 Cwid
    5.200000   15.566823   10.343212  1 Cwid
    5.200000   18.125235    7.389030  1 Cwid
    5.200000   16.846064    8.127583  1 Cwid
    5.200000   19.404474    8.127583  1 Cwid
    5.200000   16.846064    9.604673  1 Cwid
    5.200000   19.404474    9.604673  1 Cwid
    5.200000   18.125235   10.343212  1 Cwid
    5.200000   20.683645    7.389030  1 Cwid
    5.200000   23.242054    7.389030  1 Cwid
    5.200000   21.962812    8.127583  1 Cwid
    5.200000   21.962812    9.604673  1 Cwid
    5.200000   20.683645   10.343212  1 Cwid
    5.200000   23.242054   10.343212  1 Cwid
    5.200000   13.008413   11.820303  1 Cwid
    5.200000   15.566823   11.820303  1 Cwid
    5.200000   14.287655   12.558854  1 Cwid
    5.200000   14.287655   14.035892  1 Cwid
    5.200000   18.125235   11.820303  1 Cwid
    5.200000   16.846064   12.558854  1 Cwid
    5.200000   19.404474   12.558854  1 Cwid
    5.200000   16.846064   14.035892  1 Cwid
    5.200000   19.404474   14.035892  1 Cwid
    5.200000   20.683645   11.820303  1 Cwid
    5.200000   23.242054   11.820303  1 Cwid
    5.200000   21.962812   12.558854  1 Cwid
    5.200000   21.962812   14.035892  1 Cwid
    5.200000   13.008413   14.774498  1 Cwid
    5.200000   15.566823   14.774498  1 Cwid
    5.200000   13.008413   16.251575  1 Cwid
    5.200000   15.566823   16.251575  1 Cwid
    5.200000   14.287655   16.990179  1 Cwid
    5.200000   18.125235   14.774498  1 Cwid
    5.200000   18.125235   16.251575  1 Cwid
    5.200000   16.846064   16.990179  1 Cwid
    5.200000   19.404474   16.990179  1 Cwid
    5.200000   20.683645   14.774498  1 Cwid
    5.200000   23.242054   14.774498  1 Cwid
    5.200000   20.683645   16.251575  1 Cwid
    5.200000   23.242054   16.251575  1 Cwid
    5.200000   21.962812   16.990179  1 Cwid
    5.200000   14.287655   18.467257  1 Cwid
    5.200000   13.008413   19.205732  1 Cwid
    5.200000   15.566823   19.205732  1 Cwid
    5.200000   13.008413   20.682808  1 Cwid
    5.200000   15.566823   20.682808  1 Cwid
    5.200000   14.287655   21.421413  1 Cwid
    5.200000   16.846064   18.467257  1 Cwid
    5.200000   19.404474   18.467257  1 Cwid
    5.200000   18.125235   19.205732  1 Cwid
    5.200000   18.125235   20.682808  1 Cwid
    5.200000   16.846064   21.421413  1 Cwid
    5.200000   19.404474   21.421413  1 Cwid
    5.200000   21.962812   18.467257  1 Cwid
    5.200000   20.683645   19.205732  1 Cwid
    5.200000   23.242054   19.205732  1 Cwid
    5.200000   20.683645   20.682808  1 Cwid
    5.200000   23.242054   20.682808  1 Cwid
    5.200000   21.962812   21.421413  1 Cwid
    5.200000   14.287655  111.524078  1 Cwid
    5.200000   13.008413  112.262543  1 Cwid
    5.200000   15.566823  112.262543  1 Cwid
    5.200000   13.008413  113.739624  1 Cwid
    5.200000   15.566823  113.739624  1 Cwid
    5.200000   16.846064  111.524078  1 Cwid
    5.200000   19.404474  111.524078  1 Cwid
    5.200000   18.125235  112.262543  1 Cwid
    5.200000   18.125235  113.739624  1 Cwid
    5.200000   21.962812  111.524078  1 Cwid
    5.200000   20.683645  112.262543  1 Cwid
    5.200000   23.242054  112.262543  1 Cwid
    5.200000   20.683645  113.739624  1 Cwid
    5.200000   23.242054  113.739624  1 Cwid
    5.200000   14.287655  114.478233  1 Cwid
    5.200000   14.287655  115.955307  1 Cwid
    5.200000   13.008413  116.693909  1 Cwid
    5.200000   15.566823  116.693909  1 Cwid
    5.200000   16.846064  114.478233  1 Cwid
    5.200000   19.404474  114.478233  1 Cwid
    5.200000   16.846064  115.955307  1 Cwid
    5.200000   19.404474  115.955307  1 Cwid
    5.200000   18.125235  116.693909  1 Cwid
    5.200000   21.962812  114.478233  1 Cwid
    5.200000   21.962812  115.955307  1 Cwid
    5.200000   20.683645  116.693909  1 Cwid
    5.200000   23.242054  116.693909  1 Cwid
    5.200000   13.008413  118.170998  1 Cwid
    5.200000   15.566823  118.170998  1 Cwid
    5.200000   14.287655  118.909454  1 Cwid
    5.200000   14.287655  120.386543  1 Cwid
    5.200000   13.008413  121.125145  1 Cwid
    5.200000   15.566823  121.125145  1 Cwid
    5.200000   18.125235  118.170998  1 Cwid
    5.200000   16.846064  118.909454  1 Cwid
    5.200000   19.404474  118.909454  1 Cwid
    5.200000   16.846064  120.386543  1 Cwid
    5.200000   19.404474  120.386543  1 Cwid
    5.200000   18.125235  121.125145  1 Cwid
    5.200000   20.683645  118.170998  1 Cwid
    5.200000   23.242054  118.170998  1 Cwid
    5.200000   21.962812  118.909454  1 Cwid
    5.200000   21.962812  120.386543  1 Cwid
    5.200000   20.683645  121.125145  1 Cwid
    5.200000   23.242054  121.125145  1 Cwid
    5.200000   13.008413  122.602226  1 Cwid
    5.200000   15.566823  122.602226  1 Cwid
    5.200000   14.287655  123.340828  1 Cwid
    5.200000   14.287655  124.817909  1 Cwid
    5.200000   18.125235  122.602226  1 Cwid
    5.200000   16.846064  123.340828  1 Cwid
    5.200000   19.404474  123.340828  1 Cwid
    5.200000   16.846064  124.817909  1 Cwid
    5.200000   19.404474  124.817909  1 Cwid
    5.200000   20.683645  122.602226  1 Cwid
    5.200000   23.242054  122.602226  1 Cwid
    5.200000   21.962812  123.340828  1 Cwid
    5.200000   21.962812  124.817909  1 Cwid
    5.200000   13.008413  125.556381  1 Cwid
    5.200000   15.566823  125.556381  1 Cwid
    5.200000   13.008413  127.033455  1 Cwid
    5.200000   15.566823  127.033455  1 Cwid
    5.200000   14.287655  127.772064  1 Cwid
    5.200000   18.125235  125.556381  1 Cwid
    5.200000   18.125235  127.033455  1 Cwid
    5.200000   16.846064  127.772064  1 Cwid
    5.200000   19.404474  127.772064  1 Cwid
    5.200000   20.683645  125.556381  1 Cwid
    5.200000   23.242054  125.556381  1 Cwid
    5.200000   20.683645  127.033455  1 Cwid
    5.200000   23.242054  127.033455  1 Cwid
    5.200000   21.962812  127.772064  1 Cwid
    5.200000   14.287655  129.249130  1 Cwid
    5.200000   13.008413  129.987747  1 Cwid
    5.200000   15.566823  129.987747  1 Cwid
    5.200000   13.008413  131.464813  1 Cwid
    5.200000   15.566823  131.464813  1 Cwid
    5.200000   14.287655  132.203293  1 Cwid
    5.200000   16.846064  129.249130  1 Cwid
    5.200000   19.404474  129.249130  1 Cwid
    5.200000   18.125235  129.987747  1 Cwid
    5.200000   18.125235  131.464813  1 Cwid
    5.200000   16.846064  132.203293  1 Cwid
    5.200000   19.404474  132.203293  1 Cwid
    5.200000   21.962812  129.249130  1 Cwid
    5.200000   20.683645  129.987747  1 Cwid
    5.200000   23.242054  129.987747  1 Cwid
    5.200000   20.683645  131.464813  1 Cwid
    5.200000   23.242054  131.464813  1 Cwid
    5.200000   21.962812  132.203293  1 Cwid
    5.200000   24.521223    0.742116  1 Cwid
    5.200000   27.079634    0.742116  1 Cwid
    5.200000   25.800465    1.480667  1 Cwid
    5.200000   25.800465    2.957758  1 Cwid
    5.200000   29.638042    0.742116  1 Cwid
    5.200000   32.196457    0.742116  1 Cwid
    5.200000   28.358805    1.480667  1 Cwid
    5.200000   30.917213    1.480667  1 Cwid
    5.200000   28.358805    2.957758  1 Cwid
    5.200000   30.917213    2.957758  1 Cwid
    5.200000   34.754864    0.742116  1 Cwid
    5.200000   33.475620    1.480667  1 Cwid
    5.200000   36.034031    1.480667  1 Cwid
    5.200000   33.475620    2.957758  1 Cwid
    5.200000   36.034031    2.957758  1 Cwid
    5.200000   24.521223    3.696297  1 Cwid
    5.200000   27.079634    3.696297  1 Cwid
    5.200000   24.521223    5.173388  1 Cwid
    5.200000   27.079634    5.173388  1 Cwid
    5.200000   25.800465    5.911940  1 Cwid
    5.200000   29.638042    3.696297  1 Cwid
    5.200000   32.196457    3.696297  1 Cwid
    5.200000   29.638042    5.173388  1 Cwid
    5.200000   32.196457    5.173388  1 Cwid
    5.200000   28.358805    5.911940  1 Cwid
    5.200000   30.917213    5.911940  1 Cwid
    5.200000   34.754864    3.696297  1 Cwid
    5.200000   34.754864    5.173388  1 Cwid
    5.200000   33.475620    5.911940  1 Cwid
    5.200000   36.034031    5.911940  1 Cwid
    5.200000   25.800465    7.389030  1 Cwid
    5.200000   24.521223    8.127583  1 Cwid
    5.200000   27.079634    8.127583  1 Cwid
    5.200000   24.521223    9.604673  1 Cwid
    5.200000   27.079634    9.604673  1 Cwid
    5.200000   25.800465   10.343212  1 Cwid
    5.200000   28.358805    7.389030  1 Cwid
    5.200000   30.917213    7.389030  1 Cwid
    5.200000   29.638042    8.127583  1 Cwid
    5.200000   32.196457    8.127583  1 Cwid
    5.200000   29.638042    9.604673  1 Cwid
    5.200000   32.196457    9.604673  1 Cwid
    5.200000   28.358805   10.343212  1 Cwid
    5.200000   30.917213   10.343212  1 Cwid
    5.200000   33.475620    7.389030  1 Cwid
    5.200000   36.034031    7.389030  1 Cwid
    5.200000   34.754864    8.127583  1 Cwid
    5.200000   34.754864    9.604673  1 Cwid
    5.200000   33.475620   10.343212  1 Cwid
    5.200000   36.034031   10.343212  1 Cwid
    5.200000   25.800465   11.820303  1 Cwid
    5.200000   24.521223   12.558854  1 Cwid
    5.200000   27.079634   12.558854  1 Cwid
    5.200000   24.521223   14.035892  1 Cwid
    5.200000   27.079634   14.035892  1 Cwid
    5.200000   28.358805   11.820303  1 Cwid
    5.200000   30.917213   11.820303  1 Cwid
    5.200000   29.638042   12.558854  1 Cwid
    5.200000   32.196457   12.558854  1 Cwid
    5.200000   29.638042   14.035892  1 Cwid
    5.200000   32.196457   14.035892  1 Cwid
    5.200000   33.475620   11.820303  1 Cwid
    5.200000   36.034031   11.820303  1 Cwid
    5.200000   34.754864   12.558854  1 Cwid
    5.200000   34.754864   14.035892  1 Cwid
    5.200000   25.800465   14.774498  1 Cwid
    5.200000   25.800465   16.251575  1 Cwid
    5.200000   24.521223   16.990179  1 Cwid
    5.200000   27.079634   16.990179  1 Cwid
    5.200000   28.358805   14.774498  1 Cwid
    5.200000   30.917213   14.774498  1 Cwid
    5.200000   28.358805   16.251575  1 Cwid
    5.200000   30.917213   16.251575  1 Cwid
    5.200000   29.638042   16.990179  1 Cwid
    5.200000   32.196457   16.990179  1 Cwid
    5.200000   33.475620   14.774498  1 Cwid
    5.200000   36.034031   14.774498  1 Cwid
    5.200000   33.475620   16.251575  1 Cwid
    5.200000   36.034031   16.251575  1 Cwid
    5.200000   34.754864   16.990179  1 Cwid
    5.200000   24.521223   18.467257  1 Cwid
    5.200000   27.079634   18.467257  1 Cwid
    5.200000   25.800465   19.205732  1 Cwid
    5.200000   25.800465   20.682808  1 Cwid
    5.200000   24.521223   21.421413  1 Cwid
    5.200000   27.079634   21.421413  1 Cwid
    5.200000   29.638042   18.467257  1 Cwid
    5.200000   32.196457   18.467257  1 Cwid
    5.200000   28.358805   19.205732  1 Cwid
    5.200000   30.917213   19.205732  1 Cwid
    5.200000   28.358805   20.682808  1 Cwid
    5.200000   30.917213   20.682808  1 Cwid
    5.200000   29.638042   21.421413  1 Cwid
    5.200000   32.196457   21.421413  1 Cwid
    5.200000   34.754864   18.467257  1 Cwid
    5.200000   33.475620   19.205732  1 Cwid
    5.200000   36.034031   19.205732  1 Cwid
    5.200000   33.475620   20.682808  1 Cwid
    5.200000   36.034031   20.682808  1 Cwid
    5.200000   34.754864   21.421413  1 Cwid
    5.200000   24.521223  111.524078  1 Cwid
    5.200000   27.079634  111.524078  1 Cwid
    5.200000   25.800465  112.262543  1 Cwid
    5.200000   25.800465  113.739624  1 Cwid
    5.200000   29.638042  111.524078  1 Cwid
    5.200000   32.196457  111.524078  1 Cwid
    5.200000   28.358805  112.262543  1 Cwid
    5.200000   30.917213  112.262543  1 Cwid
    5.200000   28.358805  113.739624  1 Cwid
    5.200000   30.917213  113.739624  1 Cwid
    5.200000   34.754864  111.524078  1 Cwid
    5.200000   33.475620  112.262543  1 Cwid
    5.200000   36.034031  112.262543  1 Cwid
    5.200000   33.475620  113.739624  1 Cwid
    5.200000   36.034031  113.739624  1 Cwid
    5.200000   24.521223  114.478233  1 Cwid
    5.200000   27.079634  114.478233  1 Cwid
    5.200000   24.521223  115.955307  1 Cwid
    5.200000   27.079634  115.955307  1 Cwid
    5.200000   25.800465  116.693909  1 Cwid
    5.200000   29.638042  114.478233  1 Cwid
    5.200000   32.196457  114.478233  1 Cwid
    5.200000   29.638042  115.955307  1 Cwid
    5.200000   32.196457  115.955307  1 Cwid
    5.200000   28.358805  116.693909  1 Cwid
    5.200000   30.917213  116.693909  1 Cwid
    5.200000   34.754864  114.478233  1 Cwid
    5.200000   34.754864  115.955307  1 Cwid
    5.200000   33.475620  116.693909  1 Cwid
    5.200000   36.034031  116.693909  1 Cwid
    5.200000   25.800465  118.170998  1 Cwid
    5.200000   24.521223  118.909454  1 Cwid
    5.200000   27.079634  118.909454  1 Cwid
    5.200000   24.521223  120.386543  1 Cwid
    5.200000   27.079634  120.386543  1 Cwid
    5.200000   25.800465  121.125145  1 Cwid
    5.200000   28.358805  118.170998  1 Cwid
    5.200000   30.917213  118.170998  1 Cwid
    5.200000   29.638042  118.909454  1 Cwid
    5.200000   32.196457  118.909454  1 Cwid
    5.200000   29.638042  120.386543  1 Cwid
    5.200000   32.196457  120.386543  1 Cwid
    5.200000   28.358805  121.125145  1 Cwid
    5.200000   30.917213  121.125145  1 Cwid
    5.200000   33.475620  118.170998  1 Cwid
    5.200000   36.034031  118.170998  1 Cwid
    5.200000   34.754864  118.909454  1 Cwid
    5.200000   34.754864  120.386543  1 Cwid
    5.200000   33.475620  121.125145  1 Cwid
    5.200000   36.034031  121.125145  1 Cwid
    5.200000   25.800465  122.602226  1 Cwid
    5.200000   24.521223  123.340828  1 Cwid
    5.200000   27.079634  123.340828  1 Cwid
    5.200000   24.521223  124.817909  1 Cwid
    5.200000   27.079634  124.817909  1 Cwid
    5.200000   28.358805  122.602226  1 Cwid
    5.200000   30.917213  122.602226  1 Cwid
    5.200000   29.638042  123.340828  1 Cwid
    5.200000   32.196457  123.340828  1 Cwid
    5.200000   29.638042  124.817909  1 Cwid
    5.200000   32.196457  124.817909  1 Cwid
    5.200000   33.475620  122.602226  1 Cwid
    5.200000   36.034031  122.602226  1 Cwid
    5.200000   34.754864  123.340828  1 Cwid
    5.200000   34.754864  124.817909  1 Cwid
    5.200000   25.800465  125.556381  1 Cwid
    5.200000   25.800465  127.033455  1 Cwid
    5.200000   24.521223  127.772064  1 Cwid
    5.200000   27.079634  127.772064  1 Cwid
    5.200000   28.358805  125.556381  1 Cwid
    5.200000   30.917213  125.556381  1 Cwid
    5.200000   28.358805  127.033455  1 Cwid
    5.200000   30.917213  127.033455  1 Cwid
    5.200000   29.638042  127.772064  1 Cwid
    5.200000   32.196457  127.772064  1 Cwid
    5.200000   33.475620  125.556381  1 Cwid
    5.200000   36.034031  125.556381  1 Cwid
    5.200000   33.475620  127.033455  1 Cwid
    5.200000   36.034031  127.033455  1 Cwid
    5.200000   34.754864  127.772064  1 Cwid
    5.200000   24.521223  129.249130  1 Cwid
    5.200000   27.079634  129.249130  1 Cwid
    5.200000   25.800465  129.987747  1 Cwid
    5.200000   25.800465  131.464813  1 Cwid
    5.200000   24.521223  132.203293  1 Cwid
    5.200000   27.079634  132.203293  1 Cwid
    5.200000   29.638042  129.249130  1 Cwid
    5.200000   32.196457  129.249130  1 Cwid
    5.200000   28.358805  129.987747  1 Cwid
    5.200000   30.917213  129.987747  1 Cwid
    5.200000   28.358805  131.464813  1 Cwid
    5.200000   30.917213  131.464813  1 Cwid
    5.200000   29.638042  132.203293  1 Cwid
    5.200000   32.196457  132.203293  1 Cwid
    5.200000   34.754864  129.249130  1 Cwid
    5.200000   33.475620  129.987747  1 Cwid
    5.200000   36.034031  129.987747  1 Cwid
    5.200000   33.475620  131.464813  1 Cwid
    5.200000   36.034031  131.464813  1 Cwid
    5.200000   34.754864  132.203293  1 Cwid
    5.200000   37.313202    0.742116  1 Cwid
    5.200000   39.871613    0.742116  1 Cwid
    5.200000   38.592442    1.480667  1 Cwid
    5.200000   38.592442    2.957758  1 Cwid
    5.200000   42.430023    0.742116  1 Cwid
    5.200000   41.150856    1.480667  1 Cwid
    5.200000   43.709267    1.480667  1 Cwid
    5.200000   41.150856    2.957758  1 Cwid
    5.200000   43.709267    2.957758  1 Cwid
    5.200000   44.988438    0.742116  1 Cwid
    5.200000   47.546844    0.742116  1 Cwid
    5.200000   46.267601    1.480667  1 Cwid
    5.200000   46.267601    2.957758  1 Cwid
    5.200000   37.313202    3.696297  1 Cwid
    5.200000   39.871613    3.696297  1 Cwid
    5.200000   37.313202    5.173388  1 Cwid
    5.200000   39.871613    5.173388  1 Cwid
    5.200000   38.592442    5.911940  1 Cwid
    5.200000   42.430023    3.696297  1 Cwid
    5.200000   42.430023    5.173388  1 Cwid
    5.200000   41.150856    5.911940  1 Cwid
    5.200000   43.709267    5.911940  1 Cwid
    5.200000   44.988438    3.696297  1 Cwid
    5.200000   47.546844    3.696297  1 Cwid
    5.200000   44.988438    5.173388  1 Cwid
    5.200000   47.546844    5.173388  1 Cwid
    5.200000   46.267601    5.911940  1 Cwid
    5.200000   38.592442    7.389030  1 Cwid
    5.200000   37.313202    8.127583  1 Cwid
    5.200000   39.871613    8.127583  1 Cwid
    5.200000   37.313202    9.604673  1 Cwid
    5.200000   39.871613    9.604673  1 Cwid
    5.200000   38.592442   10.343212  1 Cwid
    5.200000   41.150856    7.389030  1 Cwid
    5.200000   43.709267    7.389030  1 Cwid
    5.200000   42.430023    8.127583  1 Cwid
    5.200000   42.430023    9.604673  1 Cwid
    5.200000   41.150856   10.343212  1 Cwid
    5.200000   43.709267   10.343212  1 Cwid
    5.200000   46.267601    7.389030  1 Cwid
    5.200000   44.988438    8.127583  1 Cwid
    5.200000   47.546844    8.127583  1 Cwid
    5.200000   44.988438    9.604673  1 Cwid
    5.200000   47.546844    9.604673  1 Cwid
    5.200000   46.267601   10.343212  1 Cwid
    5.200000   38.592442   11.820303  1 Cwid
    5.200000   37.313202   12.558854  1 Cwid
    5.200000   39.871613   12.558854  1 Cwid
    5.200000   37.313202   14.035892  1 Cwid
    5.200000   39.871613   14.035892  1 Cwid
    5.200000   41.150856   11.820303  1 Cwid
    5.200000   43.709267   11.820303  1 Cwid
    5.200000   42.430023   12.558854  1 Cwid
    5.200000   42.430023   14.035892  1 Cwid
    5.200000   46.267601   11.820303  1 Cwid
    5.200000   44.988438   12.558854  1 Cwid
    5.200000   47.546844   12.558854  1 Cwid
    5.200000   44.988438   14.035892  1 Cwid
    5.200000   47.546844   14.035892  1 Cwid
    5.200000   38.592442   14.774498  1 Cwid
    5.200000   38.592442   16.251575  1 Cwid
    5.200000   37.313202   16.990179  1 Cwid
    5.200000   39.871613   16.990179  1 Cwid
    5.200000   41.150856   14.774498  1 Cwid
    5.200000   43.709267   14.774498  1 Cwid
    5.200000   41.150856   16.251575  1 Cwid
    5.200000   43.709267   16.251575  1 Cwid
    5.200000   42.430023   16.990179  1 Cwid
    5.200000   46.267601   14.774498  1 Cwid
    5.200000   46.267601   16.251575  1 Cwid
    5.200000   44.988438   16.990179  1 Cwid
    5.200000   47.546844   16.990179  1 Cwid
    5.200000   37.313202   18.467257  1 Cwid
    5.200000   39.871613   18.467257  1 Cwid
    5.200000   38.592442   19.205732  1 Cwid
    5.200000   38.592442   20.682808  1 Cwid
    5.200000   37.313202   21.421413  1 Cwid
    5.200000   39.871613   21.421413  1 Cwid
    5.200000   42.430023   18.467257  1 Cwid
    5.200000   41.150856   19.205732  1 Cwid
    5.200000   43.709267   19.205732  1 Cwid
    5.200000   41.150856   20.682808  1 Cwid
    5.200000   43.709267   20.682808  1 Cwid
    5.200000   42.430023   21.421413  1 Cwid
    5.200000   44.988438   18.467257  1 Cwid
    5.200000   47.546844   18.467257  1 Cwid
    5.200000   46.267601   19.205732  1 Cwid
    5.200000   46.267601   20.682808  1 Cwid
    5.200000   44.988438   21.421413  1 Cwid
    5.200000   47.546844   21.421413  1 Cwid
    5.200000   37.313202  111.524078  1 Cwid
    5.200000   39.871613  111.524078  1 Cwid
    5.200000   38.592442  112.262543  1 Cwid
    5.200000   38.592442  113.739624  1 Cwid
    5.200000   42.430023  111.524078  1 Cwid
    5.200000   41.150856  112.262543  1 Cwid
    5.200000   43.709267  112.262543  1 Cwid
    5.200000   41.150856  113.739624  1 Cwid
    5.200000   43.709267  113.739624  1 Cwid
    5.200000   44.988438  111.524078  1 Cwid
    5.200000   47.546844  111.524078  1 Cwid
    5.200000   46.267601  112.262543  1 Cwid
    5.200000   46.267601  113.739624  1 Cwid
    5.200000   37.313202  114.478233  1 Cwid
    5.200000   39.871613  114.478233  1 Cwid
    5.200000   37.313202  115.955307  1 Cwid
    5.200000   39.871613  115.955307  1 Cwid
    5.200000   38.592442  116.693909  1 Cwid
    5.200000   42.430023  114.478233  1 Cwid
    5.200000   42.430023  115.955307  1 Cwid
    5.200000   41.150856  116.693909  1 Cwid
    5.200000   43.709267  116.693909  1 Cwid
    5.200000   44.988438  114.478233  1 Cwid
    5.200000   47.546844  114.478233  1 Cwid
    5.200000   44.988438  115.955307  1 Cwid
    5.200000   47.546844  115.955307  1 Cwid
    5.200000   46.267601  116.693909  1 Cwid
    5.200000   38.592442  118.170998  1 Cwid
    5.200000   37.313202  118.909454  1 Cwid
    5.200000   39.871613  118.909454  1 Cwid
    5.200000   37.313202  120.386543  1 Cwid
    5.200000   39.871613  120.386543  1 Cwid
    5.200000   38.592442  121.125145  1 Cwid
    5.200000   41.150856  118.170998  1 Cwid
    5.200000   43.709267  118.170998  1 Cwid
    5.200000   42.430023  118.909454  1 Cwid
    5.200000   42.430023  120.386543  1 Cwid
    5.200000   41.150856  121.125145  1 Cwid
    5.200000   43.709267  121.125145  1 Cwid
    5.200000   46.267601  118.170998  1 Cwid
    5.200000   44.988438  118.909454  1 Cwid
    5.200000   47.546844  118.909454  1 Cwid
    5.200000   44.988438  120.386543  1 Cwid
    5.200000   47.546844  120.386543  1 Cwid
    5.200000   46.267601  121.125145  1 Cwid
    5.200000   38.592442  122.602226  1 Cwid
    5.200000   37.313202  123.340828  1 Cwid
    5.200000   39.871613  123.340828  1 Cwid
    5.200000   37.313202  124.817909  1 Cwid
    5.200000   39.871613  124.817909  1 Cwid
    5.200000   41.150856  122.602226  1 Cwid
    5.200000   43.709267  122.602226  1 Cwid
    5.200000   42.430023  123.340828  1 Cwid
    5.200000   42.430023  124.817909  1 Cwid
    5.200000   46.267601  122.602226  1 Cwid
    5.200000   44.988438  123.340828  1 Cwid
    5.200000   47.546844  123.340828  1 Cwid
    5.200000   44.988438  124.817909  1 Cwid
    5.200000   47.546844  124.817909  1 Cwid
    5.200000   38.592442  125.556381  1 Cwid
    5.200000   38.592442  127.033455  1 Cwid
    5.200000   37.313202  127.772064  1 Cwid
    5.200000   39.871613  127.772064  1 Cwid
    5.200000   41.150856  125.556381  1 Cwid
    5.200000   43.709267  125.556381  1 Cwid
    5.200000   41.150856  127.033455  1 Cwid
    5.200000   43.709267  127.033455  1 Cwid
    5.200000   42.430023  127.772064  1 Cwid
    5.200000   46.267601  125.556381  1 Cwid
    5.200000   46.267601  127.033455  1 Cwid
    5.200000   44.988438  127.772064  1 Cwid
    5.200000   47.546844  127.772064  1 Cwid
    5.200000   37.313202  129.249130  1 Cwid
    5.200000   39.871613  129.249130  1 Cwid
    5.200000   38.592442  129.987747  1 Cwid
    5.200000   38.592442  131.464813  1 Cwid
    5.200000   37.313202  132.203293  1 Cwid
    5.200000   39.871613  132.203293  1 Cwid
    5.200000   42.430023  129.249130  1 Cwid
    5.200000   41.150856  129.987747  1 Cwid
    5.200000   43.709267  129.987747  1 Cwid
    5.200000   41.150856  131.464813  1 Cwid
    5.200000   43.709267  131.464813  1 Cwid
    5.200000   42.430023  132.203293  1 Cwid
    5.200000   44.988438  129.249130  1 Cwid
    5.200000   47.546844  129.249130  1 Cwid
    5.200000   46.267601  129.987747  1 Cwid
    5.200000   46.267601  131.464813  1 Cwid
    5.200000   44.988438  132.203293  1 Cwid
    5.200000   47.546844  132.203293  1 Cwid
    5.200000   50.105255    0.742116  1 Cwid
    5.200000   48.826012    1.480667  1 Cwid
    5.200000   51.384422    1.480667  1 Cwid
    5.200000   48.826012    2.957758  1 Cwid
    5.200000   51.384422    2.957758  1 Cwid
    5.200000   52.663589    0.742116  1 Cwid
    5.200000   55.222004    0.742116  1 Cwid
    5.200000   53.942833    1.480667  1 Cwid
    5.200000   56.501244    1.480667  1 Cwid
    5.200000   53.942833    2.957758  1 Cwid
    5.200000   56.501244    2.957758  1 Cwid
    5.200000   57.780411    0.742116  1 Cwid
    5.200000   60.338821    0.742116  1 Cwid
    5.200000   59.059650    1.480667  1 Cwid
    5.200000   59.059650    2.957758  1 Cwid
    5.200000   50.105255    3.696297  1 Cwid
    5.200000   50.105255    5.173388  1 Cwid
    5.200000   48.826012    5.911940  1 Cwid
    5.200000   51.384422    5.911940  1 Cwid
    5.200000   52.663589    3.696297  1 Cwid
    5.200000   55.222004    3.696297  1 Cwid
    5.200000   52.663589    5.173388  1 Cwid
    5.200000   55.222004    5.173388  1 Cwid
    5.200000   53.942833    5.911940  1 Cwid
    5.200000   56.501244    5.911940  1 Cwid
    5.200000   57.780411    3.696297  1 Cwid
    5.200000   60.338821    3.696297  1 Cwid
    5.200000   57.780411    5.173388  1 Cwid
    5.200000   60.338821    5.173388  1 Cwid
    5.200000   59.059650    5.911940  1 Cwid
    5.200000   48.826012    7.389030  1 Cwid
    5.200000   51.384422    7.389030  1 Cwid
    5.200000   50.105255    8.127583  1 Cwid
    5.200000   50.105255    9.604673  1 Cwid
    5.200000   48.826012   10.343212  1 Cwid
    5.200000   51.384422   10.343212  1 Cwid
    5.200000   53.942833    7.389030  1 Cwid
    5.200000   56.501244    7.389030  1 Cwid
    5.200000   52.663589    8.127583  1 Cwid
    5.200000   55.222004    8.127583  1 Cwid
    5.200000   52.663589    9.604673  1 Cwid
    5.200000   55.222004    9.604673  1 Cwid
    5.200000   53.942833   10.343212  1 Cwid
    5.200000   56.501244   10.343212  1 Cwid
    5.200000   59.059650    7.389030  1 Cwid
    5.200000   57.780411    8.127583  1 Cwid
    5.200000   60.338821    8.127583  1 Cwid
    5.200000   57.780411    9.604673  1 Cwid
    5.200000   60.338821    9.604673  1 Cwid
    5.200000   59.059650   10.343212  1 Cwid
    5.200000   48.826012   11.820303  1 Cwid
    5.200000   51.384422   11.820303  1 Cwid
    5.200000   50.105255   12.558854  1 Cwid
    5.200000   50.105255   14.035892  1 Cwid
    5.200000   53.942833   11.820303  1 Cwid
    5.200000   56.501244   11.820303  1 Cwid
    5.200000   52.663589   12.558854  1 Cwid
    5.200000   55.222004   12.558854  1 Cwid
    5.200000   52.663589   14.035892  1 Cwid
    5.200000   55.222004   14.035892  1 Cwid
    5.200000   59.059650   11.820303  1 Cwid
    5.200000   57.780411   12.558854  1 Cwid
    5.200000   60.338821   12.558854  1 Cwid
    5.200000   57.780411   14.035892  1 Cwid
    5.200000   60.338821   14.035892  1 Cwid