 %block AtomicCoordinatesAndAtomicSpecies
    5.000000   11.389641    0.713521  1 Cwid
    5.000000   10.159640    1.423718  1 Cwid
    5.000000   12.619639    1.423718  1 Cwid
    5.000000   10.159640    2.843985  1 Cwid
    5.000000   12.619639    2.843985  1 Cwid
    5.000000   13.849640    0.713521  1 Cwid
    5.000000   16.309641    0.713521  1 Cwid
    5.000000   15.079640    1.423718  1 Cwid
    5.000000   15.079640    2.843985  1 Cwid
    5.000000   18.769640    0.713521  1 Cwid
    5.000000   17.539639    1.423718  1 Cwid
    5.000000   19.999640    1.423718  1 Cwid
    5.000000   17.539639    2.843985  1 Cwid
    5.000000   19.999640    2.843985  1 Cwid
    5.000000   11.389641    3.554183  1 Cwid
    5.000000   11.389641    4.974449  1 Cwid
    5.000000   10.159640    5.684519  1 Cwid
    5.000000   12.619639    5.684519  1 Cwid
    5.000000   13.849640    3.554183  1 Cwid
    5.000000   16.309641    3.554183  1 Cwid
    5.000000   13.849640    4.974449  1 Cwid
    5.000000   16.309641    4.974449  1 Cwid
    5.000000   15.079640    5.684519  1 Cwid
    5.000000   18.769640    3.554183  1 Cwid
    5.000000   18.769640    4.974449  1 Cwid
    5.000000   17.539639    5.684519  1 Cwid
    5.000000   19.999640    5.684519  1 Cwid
    5.000000   10.159640    7.104786  1 Cwid
    5.000000   12.619639    7.104786  1 Cwid
    5.000000   11.389641    7.814983  1 Cwid
    5.000000   11.389641    9.235250  1 Cwid
    5.000000   10.159640    9.945447  1 Cwid
    5.000000   12.619639    9.945447  1 Cwid
    5.000000   15.079640    7.104786  1 Cwid
    5.000000   13.849640    7.814983  1 Cwid
    5.000000   16.309641    7.814983  1 Cwid
    5.000000   13.849640    9.235250  1 Cwid
    5.000000   16.309641    9.235250  1 Cwid
    5.000000   15.079640    9.945447  1 Cwid
    5.000000   17.539639    7.104786  1 Cwid
    5.000000   19.999640    7.104786  1 Cwid
    5.000000   18.769640    7.814983  1 Cwid
    5.000000   18.769640    9.235250  1 Cwid
    5.000000   17.539639    9.945447  1 Cwid
    5.000000   19.999640    9.945447  1 Cwid
    5.000000   10.159640   11.365715  1 Cwid
    5.000000   12.619639   11.365715  1 Cwid
    5.000000   11.389641   12.075784  1 Cwid
    5.000000   11.389641   13.496051  1 Cwid
    5.000000   15.079640   11.365715  1 Cwid
    5.000000   13.849640   12.075784  1 Cwid
    5.000000   16.309641   12.075784  1 Cwid
    5.000000   13.849640   13.496051  1 Cwid
    5.000000   16.309641   13.496051  1 Cwid
    5.000000   17.539639   11.365715  1 Cwid
    5.000000   19.999640   11.365715  1 Cwid
    5.000000   18.769640   12.075784  1 Cwid
    5.000000   18.769640   13.496051  1 Cwid
    5.000000   10.159640   14.206248  1 Cwid
    5.000000   12.619639   14.206248  1 Cwid
    5.000000   10.159640   15.626515  1 Cwid
    5.000000   12.619639   15.626515  1 Cwid
    5.000000   11.389641   16.336712  1 Cwid
    5.000000   15.079640   14.206248  1 Cwid
    5.000000   15.079640   15.626515  1 Cwid
    5.000000   13.849640   16.336712  1 Cwid
    5.000000   16.309641   16.336712  1 Cwid
    5.000000   17.539639   14.206248  1 Cwid
    5.000000   19.999640   14.206248  1 Cwid
    5.000000   17.539639   15.626515  1 Cwid
    5.000000   19.999640   15.626515  1 Cwid
    5.000000   18.769640   16.336712  1 Cwid
    5.000000   11.389641   17.756979  1 Cwid
    5.000000   10.159640   18.467051  1 Cwid
    5.000000   12.619639   18.467051  1 Cwid
    5.000000   10.159640   19.887316  1 Cwid
    5.000000   12.619639   19.887316  1 Cwid
    5.000000   11.389641   20.597513  1 Cwid
    5.000000   13.849640   17.756979  1 Cwid
    5.000000   16.309641   17.756979  1 Cwid
    5.000000   15.079640   18.467051  1 Cwid
    5.000000   15.079640   19.887316  1 Cwid
    5.000000   13.849640   20.597513  1 Cwid
    5.000000   16.309641   20.597513  1 Cwid
    5.000000   18.769640   17.756979  1 Cwid
    5.000000   17.539639   18.467051  1 Cwid
    5.000000   19.999640   18.467051  1 Cwid
    5.000000   17.539639   19.887316  1 Cwid
    5.000000   19.999640   19.887316  1 Cwid
    5.000000   18.769640   20.597513  1 Cwid
    5.000000   11.389641  107.234695  1 Cwid
    5.000000   10.159640  107.944756  1 Cwid
    5.000000   12.619639  107.944756  1 Cwid
    5.000000   10.159640  109.365028  1 Cwid
    5.000000   12.619639  109.365028  1 Cwid
    5.000000   13.849640  107.234695  1 Cwid
    5.000000   16.309641  107.234695  1 Cwid
    5.000000   15.079640  107.944756  1 Cwid
    5.000000   15.079640  109.365028  1 Cwid
    5.000000   18.769640  107.234695  1 Cwid
    5.000000   17.539639  107.944756  1 Cwid
    5.000000   19.999640  107.944756  1 Cwid
    5.000000   17.539639  109.365028  1 Cwid
    5.000000   19.999640  109.365028  1 Cwid
    5.000000   11.389641  110.075226  1 Cwid
    5.000000   11.389641  111.495491  1 Cwid
    5.000000   10.159640  112.205688  1 Cwid
    5.000000   12.619639  112.205688  1 Cwid
    5.000000   13.849640  110.075226  1 Cwid
    5.000000   16.309641  110.075226  1 Cwid
    5.000000   13.849640  111.495491  1 Cwid
    5.000000   16.309641  111.495491  1 Cwid
    5.000000   15.079640  112.205688  1 Cwid
    5.000000   18.769640  110.075226  1 Cwid
    5.000000   18.769640  111.495491  1 Cwid
    5.000000   17.539639  112.205688  1 Cwid
    5.000000   19.999640  112.205688  1 Cwid
    5.000000   10.159640  113.625961  1 Cwid
    5.000000   12.619639  113.625961  1 Cwid
    5.000000   11.389641  114.336021  1 Cwid
    5.000000   11.389641  115.756294  1 Cwid
    5.000000   10.159640  116.466492  1 Cwid
    5.000000   12.619639  116.466492  1 Cwid
    5.000000   15.079640  113.625961  1 Cwid
    5.000000   13.849640  114.336021  1 Cwid
    5.000000   16.309641  114.336021  1 Cwid
    5.000000   13.849640  115.756294  1 Cwid
    5.000000   16.309641  115.756294  1 Cwid
    5.000000   15.079640  116.466492  1 Cwid
    5.000000   17.539639  113.625961  1 Cwid
    5.000000   19.999640  113.625961  1 Cwid
    5.000000   18.769640  114.336021  1 Cwid
    5.000000   18.769640  115.756294  1 Cwid
    5.000000   17.539639  116.466492  1 Cwid
    5.000000   19.999640  116.466492  1 Cwid
    5.000000   10.159640  117.886757  1 Cwid
    5.000000   12.619639  117.886757  1 Cwid
    5.000000   11.389641  118.596954  1 Cwid
    5.000000   11.389641  120.017227  1 Cwid
    5.000000   15.079640  117.886757  1 Cwid
    5.000000   13.849640  118.596954  1 Cwid
    5.000000   16.309641  118.596954  1 Cwid
    5.000000   13.849640  120.017227  1 Cwid
    5.000000   16.309641  120.017227  1 Cwid
    5.000000   17.539639  117.886757  1 Cwid
    5.000000   19.999640  117.886757  1 Cwid
    5.000000   18.769640  118.596954  1 Cwid
    5.000000   18.769640  120.017227  1 Cwid
    5.000000   10.159640  120.727295  1 Cwid
    5.000000   12.619639  120.727295  1 Cwid
    5.000000   10.159640  122.147560  1 Cwid
    5.000000   12.619639  122.147560  1 Cwid
    5.000000   11.389641  122.857758  1 Cwid
    5.000000   15.079640  120.727295  1 Cwid
    5.000000   15.079640  122.147560  1 Cwid
    5.000000   13.849640  122.857758  1 Cwid
    5.000000   16.309641  122.857758  1 Cwid
    5.000000   17.539639  120.727295  1 Cwid
    5.000000   19.999640  120.727295  1 Cwid
    5.000000   17.539639  122.147560  1 Cwid
    5.000000   19.999640  122.147560  1 Cwid
    5.000000   18.769640  122.857758  1 Cwid
    5.000000   11.389641  124.278015  1 Cwid
    5.000000   10.159640  124.988220  1 Cwid
    5.000000   12.619639  124.988220  1 Cwid
    5.000000   10.159640  126.408485  1 Cwid
    5.000000   12.619639  126.408485  1 Cwid
    5.000000   11.389641  127.118561  1 Cwid
    5.000000   13.849640  124.278015  1 Cwid
    5.000000   16.309641  124.278015  1 Cwid
    5.000000   15.079640  124.988220  1 Cwid
    5.000000   15.079640  126.408485  1 Cwid
    5.000000   13.849640  127.118561  1 Cwid
    5.000000   16.309641  127.118561  1 Cwid
    5.000000   18.769640  124.278015  1 Cwid
    5.000000   17.539639  124.988220  1 Cwid
    5.000000   19.999640  124.988220  1 Cwid
    5.000000   17.539639  126.408485  1 Cwid
    5.000000   19.999640  126.408485  1 Cwid
    5.000000   18.769640  127.118561  1 Cwid
    5.000000   21.229639    0.713521  1 Cwid
    5.000000   22.459641    1.423718  1 Cwid
    5.000000   22.459641    2.843985  1 Cwid
    5.000000   23.689640    0.713521  1 Cwid
    5.000000   26.149639    0.713521  1 Cwid
    5.000000   24.919641    1.423718  1 Cwid
    5.000000   24.919641    2.843985  1 Cwid
    5.000000   28.609640    0.713521  1 Cwid
    5.000000   27.379639    1.423718  1 Cwid
    5.000000   29.839640    1.423718  1 Cwid
    5.000000   27.379639    2.843985  1 Cwid
    5.000000   29.839640    2.843985  1 Cwid
    5.000000   21.229639    3.554183  1 Cwid
    5.000000   21.229639    4.974449  1 Cwid
    5.000000   22.459641    5.684519  1 Cwid
    5.000000   23.689640    3.554183  1 Cwid
    5.000000   26.149639    3.554183  1 Cwid
    5.000000   23.689640    4.974449  1 Cwid
    5.000000   26.149639    4.974449  1 Cwid
    5.000000   24.919641    5.684519  1 Cwid
    5.000000   28.609640    3.554183  1 Cwid
    5.000000   28.609640    4.974449  1 Cwid
    5.000000   27.379639    5.684519  1 Cwid
    5.000000   29.839640    5.684519  1 Cwid
    5.000000   22.459641    7.104786  1 Cwid
    5.000000   21.229639    7.814983  1 Cwid
    5.000000   21.229639    9.235250  1 Cwid
    5.000000   22.459641    9.945447  1 Cwid
    5.000000   24.919641    7.104786  1 Cwid
    5.000000   23.689640    7.814983  1 Cwid
    5.000000   26.149639    7.814983  1 Cwid
    5.000000   23.689640    9.235250  1 Cwid
    5.000000   26.149639    9.235250  1 Cwid
    5.000000   24.919641    9.945447  1 Cwid
    5.000000   27.379639    7.104786  1 Cwid
    5.000000   29.839640    7.104786  1 Cwid
    5.000000   28.609640    7.814983  1 Cwid
    5.000000   28.609640    9.235250  1 Cwid
    5.000000   27.379639    9.945447  1 Cwid
    5.000000   29.839640    9.945447  1 Cwid
    5.000000   22.459641   11.365715  1 Cwid
    5.000000   21.229639   12.075784  1 Cwid
    5.000000   21.229639   13.496051  1 Cwid
    5.000000   24.919641   11.365715  1 Cwid
    5.000000   23.689640   12.075784  1 Cwid
    5.000000   26.149639   12.075784  1 Cwid
    5.000000   23.689640   13.496051  1 Cwid
    5.000000   26.149639   13.496051  1 Cwid
    5.000000   27.379639   11.365715  1 Cwid
    5.000000   29.839640   11.365715  1 Cwid
    5.000000   28.609640   12.075784  1 Cwid
    5.000000   28.609640   13.496051  1 Cwid
    5.000000   22.459641   14.206248  1 Cwid
    5.000000   22.459641   15.626515  1 Cwid
    5.000000   21.229639   16.336712  1 Cwid
    5.000000   24.919641   14.206248  1 Cwid
    5.000000   24.919641   15.626515  1 Cwid
    5.000000   23.689640   16.336712  1 Cwid
    5.000000   26.149639   16.336712  1 Cwid
    5.000000   27.379639   14.206248  1 Cwid
    5.000000   29.839640   14.206248  1 Cwid
    5.000000   27.379639   15.626515  1 Cwid
    5.000000   29.839640   15.626515  1 Cwid
    5.000000   28.609640   16.336712  1 Cwid
    5.000000   21.229639   17.756979  1 Cwid
    5.000000   22.459641   18.467051  1 Cwid
    5.000000   22.459641   19.887316  1 Cwid
    5.000000   21.229639   20.597513  1 Cwid
    5.000000   23.689640   17.756979  1 Cwid
    5.000000   26.149639   17.756979  1 Cwid
    5.000000   24.919641   18.467051  1 Cwid
    5.000000   24.919641   19.887316  1 Cwid
    5.000000   23.689640   20.597513  1 Cwid
    5.000000   26.149639   20.597513  1 Cwid
    5.000000   28.609640   17.756979  1 Cwid
    5.000000   27.379639   18.467051  1 Cwid
    5.000000   29.839640   18.467051  1 Cwid
    5.000000   27.379639   19.887316  1 Cwid
    5.000000   29.839640   19.887316  1 Cwid
    5.000000   28.609640   20.597513  1 Cwid
    5.000000   21.229639  107.234695  1 Cwid
    5.000000   22.459641  107.944756  1 Cwid
    5.000000   22.459641  109.365028  1 Cwid
    5.000000   23.689640  107.234695  1 Cwid
    5.000000   26.149639  107.234695  1 Cwid
    5.000000   24.919641  107.944756  1 Cwid
    5.000000   24.919641  109.365028  1 Cwid
    5.000000   28.609640  107.234695  1 Cwid
    5.000000   27.379639  107.944756  1 Cwid
    5.000000   29.839640  107.944756  1 Cwid
    5.000000   27.379639  109.365028  1 Cwid
    5.000000   29.839640  109.365028  1 Cwid
    5.000000   21.229639  110.075226  1 Cwid
    5.000000   21.229639  111.495491  1 Cwid
    5.000000   22.459641  112.205688  1 Cwid
    5.000000   23.689640  110.075226  1 Cwid
    5.000000   26.149639  110.075226  1 Cwid
    5.000000   23.689640  111.495491  1 Cwid
    5.000000   26.149639  111.495491  1 Cwid
    5.000000   24.919641  112.205688  1 Cwid
    5.000000   28.609640  110.075226  1 Cwid
    5.000000   28.609640  111.495491  1 Cwid
    5.000000   27.379639  112.205688  1 Cwid
    5.000000   29.839640  112.205688  1 Cwid
    5.000000   22.459641  113.625961  1 Cwid
    5.000000   21.229639  114.336021  1 Cwid
    5.000000   21.229639  115.756294  1 Cwid
    5.000000   22.459641  116.466492  1 Cwid
    5.000000   24.919641  113.625961  1 Cwid
    5.000000   23.689640  114.336021  1 Cwid
    5.000000   26.149639  114.336021  1 Cwid
    5.000000   23.689640  115.756294  1 Cwid
    5.000000   26.149639  115.756294  1 Cwid
    5.000000   24.919641  116.466492  1 Cwid
    5.000000   27.379639  113.625961  1 Cwid
    5.000000   29.839640  113.625961  1 Cwid
    5.000000   28.609640  114.336021  1 Cwid
    5.000000   28.609640  115.756294  1 Cwid
    5.000000   27.379639  116.466492  1 Cwid
    5.000000   29.839640  116.466492  1 Cwid
    5.000000   22.459641  117.886757  1 Cwid
    5.000000   21.229639  118.596954  1 Cwid
    5.000000   21.229639  120.017227  1 Cwid
    5.000000   24.919641  117.886757  1 Cwid
    5.000000   23.689640  118.596954  1 Cwid
    5.000000   26.149639  118.596954  1 Cwid
    5.000000   23.689640  120.017227  1 Cwid
    5.000000   26.149639  120.017227  1 Cwid
    5.000000   27.379639  117.886757  1 Cwid
    5.000000   29.839640  117.886757  1 Cwid
    5.000000   28.609640  118.596954  1 Cwid
    5.000000   28.609640  120.017227  1 Cwid
    5.000000   22.459641  120.727295  1 Cwid
    5.000000   22.459641  122.147560  1 Cwid
    5.000000   21.229639  122.857758  1 Cwid
    5.000000   24.919641  120.727295  1 Cwid
    5.000000   24.919641  122.147560  1 Cwid
    5.000000   23.689640  122.857758  1 Cwid
    5.000000   26.149639  122.857758  1 Cwid
    5.000000   27.379639  120.727295  1 Cwid
    5.000000   29.839640  120.727295  1 Cwid
    5.000000   27.379639  122.147560  1 Cwid
    5.000000   29.839640  122.147560  1 Cwid
    5.000000   28.609640  122.857758  1 Cwid
    5.000000   21.229639  124.278015  1 Cwid
    5.000000   22.459641  124.988220  1 Cwid
    5.000000   22.459641  126.408485  1 Cwid
    5.000000   21.229639  127.118561  1 Cwid
    5.000000   23.689640  124.278015  1 Cwid
    5.000000   26.149639  124.278015  1 Cwid
    5.000000   24.919641  124.988220  1 Cwid
    5.000000   24.919641  126.408485  1 Cwid
    5.000000   23.689640  127.118561  1 Cwid
    5.000000   26.149639  127.118561  1 Cwid
    5.000000   28.609640  124.278015  1 Cwid
    5.000000   27.379639  124.988220  1 Cwid
    5.000000   29.839640  124.988220  1 Cwid
    5.000000   27.379639  126.408485  1 Cwid
    5.000000   29.839640  126.408485  1 Cwid
    5.000000   28.609640  127.118561  1 Cwid
    5.000000    9.215560    0.878671  2 H   
    5.000000    9.215560    3.389032  2 H   
    5.000000    9.215560    5.139472  2 H   
    5.000000    9.215560    7.649961  2 H   
    5.000000    9.215560    9.400400  2 H   
    5.000000    9.215560   11.910762  2 H   
    5.000000    9.215560   13.661201  2 H   
    5.000000    9.215560   16.171562  2 H   
    5.000000    9.215560   17.922001  2 H   
    5.000000    9.215560   20.432491  2 H   
    5.000000    9.215560  107.399712  2 H   
    5.000000    9.215560  109.910072  2 H   
    5.000000    9.215560  111.660515  2 H   
    5.000000    9.215560  114.171005  2 H   
    5.000000    9.215560  115.921440  2 H   
    5.000000    9.215560  118.431808  2 H   
    5.000000    9.215560  120.182243  2 H   
    5.000000    9.215560  122.692604  2 H   
    5.000000    9.215560  124.443047  2 H   
    5.000000    9.215560  126.953529  2 H   
    5.000000   11.389641   21.687609  2 H   
    5.000000   12.905560   22.562828  2 H   
    5.000000   12.905560   24.313269  2 H   
    5.000000   12.905560   26.823757  2 H   
    5.000000   12.905560   28.574196  2 H   
    5.000000   12.905560   31.084558  2 H   
    5.000000   12.905560   32.834995  2 H   
    5.000000   12.905560   35.345360  2 H   
    5.000000   12.905560   37.095798  2 H   
    5.000000   12.905560   39.606285  2 H   
    5.000000   12.905560   41.356598  2 H   
    5.000000   12.905560   43.867088  2 H   
    5.000000   12.905560   45.617527  2 H   
    5.000000   12.905560   48.127888  2 H   
    5.000000   12.905560   49.878326  2 H   
    5.000000   12.905560   52.388691  2 H   
    5.000000   12.905560   54.139130  2 H   
    5.000000   12.905560   56.649616  2 H   
    5.000000   12.905560   58.400059  2 H   
    5.000000   12.905560   60.910419  2 H   
    5.000000   12.905560   62.660854  2 H   
    5.000000   12.905560   65.171219  2 H   
    5.000000   12.905560   66.921661  2 H   
    5.000000   12.905560   69.432144  2 H   
    5.000000   12.905560   71.182587  2 H   
    5.000000   12.905560   73.692947  2 H   
    5.000000   12.905560   75.443382  2 H   
    5.000000   12.905560   77.953751  2 H   
    5.000000   12.905560   79.704185  2 H   
    5.000000   12.905560   82.214676  2 H   
    5.000000   12.905560   83.965118  2 H   
    5.000000   12.905560   86.475479  2 H   
    5.000000   12.905560   88.225922  2 H   
    5.000000   12.905560   90.736282  2 H   
    5.000000   12.905560   92.486717  2 H   
    5.000000   12.905560   94.997208  2 H   
    5.000000   12.905560   96.747650  2 H   
    5.000000   12.905560   99.258003  2 H   
    5.000000   12.905560  101.008453  2 H   
    5.000000   12.905560  103.518806  2 H   
    5.000000   12.905560  105.269249  2 H   
    5.000000   11.389641  106.144470  2 H   
    5.000000   28.609640   21.687609  2 H   
    5.000000   27.093719   22.562828  2 H   
    5.000000   27.093719   24.313269  2 H   
    5.000000   27.093719   26.823629  2 H   
    5.000000   27.093719   28.574196  2 H   
    5.000000   27.093719   31.084558  2 H   
    5.000000   27.093719   32.834995  2 H   
    5.000000   27.093719   35.345360  2 H   
    5.000000   27.093719   37.095798  2 H   
    5.000000   27.093719   39.606159  2 H   
    5.000000   27.093719   41.356598  2 H   
    5.000000   27.093719   43.867088  2 H   
    5.000000   27.093719   45.617527  2 H   
    5.000000   27.093719   48.127888  2 H   
    5.000000   27.093719   49.878326  2 H   
    5.000000   27.093719   52.388691  2 H   
    5.000000   27.093719   54.139130  2 H   
    5.000000   27.093719   56.649616  2 H   
    5.000000   27.093719   58.400059  2 H   
    5.000000   27.093719   60.910419  2 H   
    5.000000   27.093719   62.660854  2 H   
    5.000000   27.093719   65.171219  2 H   
    5.000000   27.093719   66.921661  2 H   
    5.000000   27.093719   69.432144  2 H   
    5.000000   27.093719   71.182587  2 H   
    5.000000   27.093719   73.692947  2 H   
    5.000000   27.093719   75.443382  2 H   
    5.000000   27.093719   77.953751  2 H   
    5.000000   27.093719   79.704185  2 H   
    5.000000   27.093719   82.214676  2 H   
    5.000000   27.093719   83.965118  2 H   
    5.000000   27.093719   86.475479  2 H   
    5.000000   27.093719   88.225922  2 H   
    5.000000   27.093719   90.736282  2 H   
    5.000000   27.093719   92.486717  2 H   
    5.000000   27.093719   94.997208  2 H   
    5.000000   27.093719   96.747650  2 H   
    5.000000   27.093719   99.258003  2 H   
    5.000000   27.093719  101.008453  2 H   
    5.000000   27.093719  103.518806  2 H   
    5.000000   27.093719  105.269249  2 H   
    5.000000   28.609640  106.144470  2 H   
    5.000000   30.783720    0.878671  2 H   
    5.000000   30.783720    3.389032  2 H   
    5.000000   30.783720    5.139472  2 H   
    5.000000   30.783720    7.649961  2 H   
    5.000000   30.783720    9.400400  2 H   
    5.000000   30.783720   11.910762  2 H   
    5.000000   30.783720   13.661201  2 H   
    5.000000   30.783720   16.171562  2 H   
    5.000000   30.783720   17.922001  2 H   
    5.000000   30.783720   20.432491  2 H   
    5.000000   30.783720  107.399712  2 H   
    5.000000   30.783720  109.910072  2 H   
    5.000000   30.783720  111.660515  2 H   
    5.000000   30.783720  114.171005  2 H   
    5.000000   30.783720  115.921440  2 H   
    5.000000   30.783720  118.431808  2 H   
    5.000000   30.783720  120.182243  2 H   
    5.000000   30.783720  122.692604  2 H   
    5.000000   30.783720  124.443047  2 H   
    5.000000   30.783720  126.953529  2 H   
    5.000000   13.849640   22.017780  3 Cnar
    5.000000   16.309641   22.017780  3 Cnar
    5.000000   15.079640   22.727978  3 Cnar
    5.000000   15.079640   24.148245  3 Cnar
    5.000000   18.769640   22.017780  3 Cnar
    5.000000   17.539639   22.727978  3 Cnar
    5.000000   19.999640   22.727978  3 Cnar
    5.000000   17.539639   24.148245  3 Cnar
    5.000000   19.999640   24.148245  3 Cnar
    5.000000   13.849640   24.858315  3 Cnar
    5.000000   16.309641   24.858315  3 Cnar
    5.000000   13.849640   26.278580  3 Cnar
    5.000000   16.309641   26.278580  3 Cnar
    5.000000   15.079640   26.988777  3 Cnar
    5.000000   18.769640   24.858315  3 Cnar
    5.000000   18.769640   26.278580  3 Cnar
    5.000000   17.539639   26.988777  3 Cnar
    5.000000   19.999640   26.988777  3 Cnar
    5.000000   15.079640   28.409046  3 Cnar
    5.000000   13.849640   29.119244  3 Cnar
    5.000000   16.309641   29.119244  3 Cnar
    5.000000   13.849640   30.539509  3 Cnar
    5.000000   16.309641   30.539509  3 Cnar
    5.000000   15.079640   31.249578  3 Cnar
    5.000000   17.539639   28.409046  3 Cnar
    5.000000   19.999640   28.409046  3 Cnar
    5.000000   18.769640   29.119244  3 Cnar
    5.000000   18.769640   30.539509  3 Cnar
    5.000000   17.539639   31.249578  3 Cnar
    5.000000   19.999640   31.249578  3 Cnar
    5.000000   15.079640   32.669846  3 Cnar
    5.000000   13.849640   33.380043  3 Cnar
    5.000000   16.309641   33.380043  3 Cnar
    5.000000   13.849640   34.800312  3 Cnar
    5.000000   16.309641   34.800312  3 Cnar
    5.000000   17.539639   32.669846  3 Cnar
    5.000000   19.999640   32.669846  3 Cnar
    5.000000   18.769640   33.380043  3 Cnar
    5.000000   18.769640   34.800312  3 Cnar
    5.000000   15.079640   35.510509  3 Cnar
    5.000000   15.079640   36.930775  3 Cnar
    5.000000   13.849640   37.640842  3 Cnar
    5.000000   16.309641   37.640842  3 Cnar
    5.000000   17.539639   35.510509  3 Cnar
    5.000000   19.999640   35.510509  3 Cnar
    5.000000   17.539639   36.930775  3 Cnar
    5.000000   19.999640   36.930775  3 Cnar
    5.000000   18.769640   37.640842  3 Cnar
    5.000000   13.849640   39.061111  3 Cnar
    5.000000   16.309641   39.061111  3 Cnar
    5.000000   15.079640   39.771309  3 Cnar
    5.000000   15.079640   41.191574  3 Cnar
    5.000000   13.849640   41.901775  3 Cnar
    5.000000   16.309641   41.901775  3 Cnar
    5.000000   18.769640   39.061111  3 Cnar
    5.000000   17.539639   39.771309  3 Cnar
    5.000000   19.999640   39.771309  3 Cnar
    5.000000   17.539639   41.191574  3 Cnar
    5.000000   19.999640   41.191574  3 Cnar
    5.000000   18.769640   41.901775  3 Cnar
    5.000000   13.849640   43.322041  3 Cnar
    5.000000   16.309641   43.322041  3 Cnar
    5.000000   15.079640   44.032112  3 Cnar
    5.000000   15.079640   45.452377  3 Cnar
    5.000000   18.769640   43.322041  3 Cnar
    5.000000   17.539639   44.032112  3 Cnar
    5.000000   19.999640   44.032112  3 Cnar
    5.000000   17.539639   45.452377  3 Cnar
    5.000000   19.999640   45.452377  3 Cnar
    5.000000   13.849640   46.162571  3 Cnar
    5.000000   16.309641   46.162571  3 Cnar
    5.000000   13.849640   47.582840  3 Cnar
    5.000000   16.309641   47.582840  3 Cnar
    5.000000   15.079640   48.293037  3 Cnar
    5.000000   18.769640   46.162571  3 Cnar
    5.000000   18.769640   47.582840  3 Cnar
    5.000000   17.539639   48.293037  3 Cnar
    5.000000   19.999640   48.293037  3 Cnar
    5.000000   15.079640   49.713303  3 Cnar
    5.000000   13.849640   50.423374  3 Cnar
    5.000000   16.309641   50.423374  3 Cnar
    5.000000   13.849640   51.843643  3 Cnar
    5.000000   16.309641   51.843643  3 Cnar
    5.000000   15.079640   52.553841  3 Cnar
    5.000000   17.539639   49.713303  3 Cnar
    5.000000   19.999640   49.713303  3 Cnar
    5.000000   18.769640   50.423374  3 Cnar
    5.000000   18.769640   51.843643  3 Cnar
    5.000000   17.539639   52.553841  3 Cnar
    5.000000   19.999640   52.553841  3 Cnar
    5.000000   15.079640   53.974106  3 Cnar
    5.000000   13.849640   54.684303  3 Cnar
    5.000000   16.309641   54.684303  3 Cnar
    5.000000   13.849640   56.104568  3 Cnar
    5.000000   16.309641   56.104568  3 Cnar
    5.000000   17.539639   53.974106  3 Cnar
    5.000000   19.999640   53.974106  3 Cnar
    5.000000   18.769640   54.684303  3 Cnar
    5.000000   18.769640   56.104568  3 Cnar
    5.000000   15.079640   56.814640  3 Cnar
    5.000000   15.079640   58.234905  3 Cnar
    5.000000   13.849640   58.945107  3 Cnar
    5.000000   16.309641   58.945107  3 Cnar
    5.000000   17.539639   56.814640  3 Cnar
    5.000000   19.999640   56.814640  3 Cnar
    5.000000   17.539639   58.234905  3 Cnar
    5.000000   19.999640   58.234905  3 Cnar
    5.000000   18.769640   58.945107  3 Cnar
    5.000000   13.849640   60.365372  3 Cnar
    5.000000   16.309641   60.365372  3 Cnar
    5.000000   15.079640   61.075565  3 Cnar
    5.000000   15.079640   62.495838  3 Cnar
    5.000000   13.849640   63.205906  3 Cnar
    5.000000   16.309641   63.205906  3 Cnar
    5.000000   18.769640   60.365372  3 Cnar
    5.000000   17.539639   61.075565  3 Cnar
    5.000000   19.999640   61.075565  3 Cnar
    5.000000   17.539639   62.495838  3 Cnar
    5.000000   19.999640   62.495838  3 Cnar
    5.000000   18.769640   63.205906  3 Cnar
    5.000000   13.849640   64.626167  3 Cnar
    5.000000   16.309641   64.626167  3 Cnar
    5.000000   15.079640   65.336372  3 Cnar
    5.000000   15.079640   66.756638  3 Cnar
    5.000000   18.769640   64.626167  3 Cnar
    5.000000   17.539639   65.336372  3 Cnar
    5.000000   19.999640   65.336372  3 Cnar
    5.000000   17.539639   66.756638  3 Cnar
    5.000000   19.999640   66.756638  3 Cnar
    5.000000   13.849640   67.466827  3 Cnar
    5.000000   16.309641   67.466827  3 Cnar
    5.000000   13.849640   68.887100  3 Cnar
    5.000000   16.309641   68.887100  3 Cnar
    5.000000   15.079640   69.597176  3 Cnar
    5.000000   18.769640   67.466827  3 Cnar
    5.000000   18.769640   68.887100  3 Cnar
    5.000000   17.539639   69.597176  3 Cnar
    5.000000   19.999640   69.597176  3 Cnar
    5.000000   15.079640   71.017433  3 Cnar
    5.000000   13.849640   71.727631  3 Cnar
    5.000000   16.309641   71.727631  3 Cnar
    5.000000   13.849640   73.147903  3 Cnar
    5.000000   16.309641   73.147903  3 Cnar
    5.000000   15.079640   73.858093  3 Cnar
    5.000000   17.539639   71.017433  3 Cnar
    5.000000   19.999640   71.017433  3 Cnar
    5.000000   18.769640   71.727631  3 Cnar
    5.000000   18.769640   73.147903  3 Cnar
    5.000000   17.539639   73.858093  3 Cnar
    5.000000   19.999640   73.858093  3 Cnar
    5.000000   15.079640   75.278366  3 Cnar
    5.000000   13.849640   75.988434  3 Cnar
    5.000000   16.309641   75.988434  3 Cnar
    5.000000   13.849640   77.408699  3 Cnar
    5.000000   16.309641   77.408699  3 Cnar
    5.000000   17.539639   75.278366  3 Cnar
    5.000000   19.999640   75.278366  3 Cnar
    5.000000   18.769640   75.988434  3 Cnar
    5.000000   18.769640   77.408699  3 Cnar
    5.000000   15.079640   78.118896  3 Cnar
    5.000000   15.079640   79.539169  3 Cnar
    5.000000   13.849640   80.249367  3 Cnar
    5.000000   16.309641   80.249367  3 Cnar
    5.000000   17.539639   78.118896  3 Cnar
    5.000000   19.999640   78.118896  3 Cnar
    5.000000   17.539639   79.539169  3 Cnar
    5.000000   19.999640   79.539169  3 Cnar
    5.000000   18.769640   80.249367  3 Cnar
    5.000000   13.849640   81.669632  3 Cnar
    5.000000   16.309641   81.669632  3 Cnar
    5.000000   15.079640   82.379700  3 Cnar
    5.000000   15.079640   83.799965  3 Cnar
    5.000000   13.849640   84.510162  3 Cnar
    5.000000   16.309641   84.510162  3 Cnar
    5.000000   18.769640   81.669632  3 Cnar
    5.000000   17.539639   82.379700  3 Cnar
    5.000000   19.999640   82.379700  3 Cnar
    5.000000   17.539639   83.799965  3 Cnar
    5.000000   19.999640   83.799965  3 Cnar
    5.000000   18.769640   84.510162  3 Cnar
    5.000000   13.849640   85.930435  3 Cnar
    5.000000   16.309641   85.930435  3 Cnar
    5.000000   15.079640   86.640633  3 Cnar
    5.000000   15.079640   88.060898  3 Cnar
    5.000000   18.769640   85.930435  3 Cnar
    5.000000   17.539639   86.640633  3 Cnar
    5.000000   19.999640   86.640633  3 Cnar
    5.000000   17.539639   88.060898  3 Cnar
    5.000000   19.999640   88.060898  3 Cnar
    5.000000   13.849640   88.770966  3 Cnar
    5.000000   16.309641   88.770966  3 Cnar
    5.000000   13.849640   90.191238  3 Cnar
    5.000000   16.309641   90.191238  3 Cnar
    5.000000   15.079640   90.901428  3 Cnar
    5.000000   18.769640   88.770966  3 Cnar
    5.000000   18.769640   90.191238  3 Cnar
    5.000000   17.539639   90.901428  3 Cnar
    5.000000   19.999640   90.901428  3 Cnar
    5.000000   15.079640   92.321693  3 Cnar
    5.000000   13.849640   93.031898  3 Cnar
    5.000000   16.309641   93.031898  3 Cnar