 %block AtomicCoordinatesAndAtomicSpecies
    5.000000   11.389641    0.713573  4 Celec
    5.000000   10.159640    1.423712  4 Celec
    5.000000   12.619639    1.423712  4 Celec
    5.000000   10.159640    2.843994  4 Celec
    5.000000   12.619639    2.843994  4 Celec
    5.000000   11.389641    3.554133  4 Celec
    5.000000   13.849640    0.713573  4 Celec
    5.000000   16.309641    0.713573  4 Celec
    5.000000   15.079640    1.423712  4 Celec
    5.000000   15.079640    2.843994  4 Celec
    5.000000   13.849640    3.554133  4 Celec
    5.000000   16.309641    3.554133  4 Celec
    5.000000   18.769640    0.713573  4 Celec
    5.000000   17.539639    1.423712  4 Celec
    5.000000   19.999640    1.423712  4 Celec
    5.000000   17.539639    2.843994  4 Celec
    5.000000   19.999640    2.843994  4 Celec
    5.000000   18.769640    3.554133  4 Celec
    5.000000   21.229639    0.713573  4 Celec
    5.000000   22.459641    1.423712  4 Celec
    5.000000   22.459641    2.843994  4 Celec
    5.000000   21.229639    3.554133  4 Celec
    5.000000   23.689640    0.713573  4 Celec
    5.000000   26.149639    0.713573  4 Celec
    5.000000   24.919641    1.423712  4 Celec
    5.000000   24.919641    2.843994  4 Celec
    5.000000   23.689640    3.554133  4 Celec
    5.000000   26.149639    3.554133  4 Celec
    5.000000   28.609640    0.713573  4 Celec
    5.000000   27.379639    1.423712  4 Celec
    5.000000   29.839640    1.423712  4 Celec
    5.000000   27.379639    2.843994  4 Celec
    5.000000   29.839640    2.843994  4 Celec
    5.000000   28.609640    3.554133  4 Celec
    5.000000    9.215560    0.878654  2 H
    5.000000    9.215560    3.389057  2 H
    5.000000   30.783720    0.878654  2 H
    5.000000   30.783720    3.389057  2 H
    5.000000   11.389641    4.974321  1 Cwid
    5.000000   10.159640    5.684518  1 Cwid
    5.000000   12.619639    5.684518  1 Cwid
    5.000000   10.159640    7.104785  1 Cwid
    5.000000   12.619639    7.104785  1 Cwid
    5.000000   13.849640    4.974321  1 Cwid
    5.000000   16.309641    4.974321  1 Cwid
    5.000000   15.079640    5.684518  1 Cwid
    5.000000   15.079640    7.104785  1 Cwid
    5.000000   18.769640    4.974321  1 Cwid
    5.000000   17.539639    5.684518  1 Cwid
    5.000000   19.999640    5.684518  1 Cwid
    5.000000   17.539639    7.104785  1 Cwid
    5.000000   19.999640    7.104785  1 Cwid
    5.000000   11.389641    7.814983  1 Cwid
    5.000000   11.389641    9.235249  1 Cwid
    5.000000   10.159640    9.945318  1 Cwid
    5.000000   12.619639    9.945318  1 Cwid
    5.000000   13.849640    7.814983  1 Cwid
    5.000000   16.309641    7.814983  1 Cwid
    5.000000   13.849640    9.235249  1 Cwid
    5.000000   16.309641    9.235249  1 Cwid
    5.000000   15.079640    9.945318  1 Cwid
    5.000000   18.769640    7.814983  1 Cwid
    5.000000   18.769640    9.235249  1 Cwid
    5.000000   17.539639    9.945318  1 Cwid
    5.000000   19.999640    9.945318  1 Cwid
    5.000000   10.159640   11.365585  1 Cwid
    5.000000   12.619639   11.365585  1 Cwid
    5.000000   11.389641   12.075783  1 Cwid
    5.000000   11.389641   13.496050  1 Cwid
    5.000000   10.159640   14.206247  1 Cwid
    5.000000   12.619639   14.206247  1 Cwid
    5.000000   15.079640   11.365585  1 Cwid
    5.000000   13.849640   12.075783  1 Cwid
    5.000000   16.309641   12.075783  1 Cwid
    5.000000   13.849640   13.496050  1 Cwid
    5.000000   16.309641   13.496050  1 Cwid
    5.000000   15.079640   14.206247  1 Cwid
    5.000000   17.539639   11.365585  1 Cwid
    5.000000   19.999640   11.365585  1 Cwid
    5.000000   18.769640   12.075783  1 Cwid
    5.000000   18.769640   13.496050  1 Cwid
    5.000000   17.539639   14.206247  1 Cwid
    5.000000   19.999640   14.206247  1 Cwid
    5.000000   10.159640   15.626514  1 Cwid
    5.000000   12.619639   15.626514  1 Cwid
    5.000000   11.389641   16.336584  1 Cwid
    5.000000   11.389641   17.756851  1 Cwid
    5.000000   15.079640   15.626514  1 Cwid
    5.000000   13.849640   16.336584  1 Cwid
    5.000000   16.309641   16.336584  1 Cwid
    5.000000   13.849640   17.756851  1 Cwid
    5.000000   16.309641   17.756851  1 Cwid
    5.000000   17.539639   15.626514  1 Cwid
    5.000000   19.999640   15.626514  1 Cwid
    5.000000   18.769640   16.336584  1 Cwid
    5.000000   18.769640   17.756851  1 Cwid
    5.000000   10.159640   18.467049  1 Cwid
    5.000000   12.619639   18.467049  1 Cwid
    5.000000   10.159640   19.887316  1 Cwid
    5.000000   12.619639   19.887316  1 Cwid
    5.000000   11.389641   20.597511  1 Cwid
    5.000000   15.079640   18.467049  1 Cwid
    5.000000   15.079640   19.887316  1 Cwid
    5.000000   13.849640   20.597511  1 Cwid
    5.000000   16.309641   20.597511  1 Cwid
    5.000000   17.539639   18.467049  1 Cwid
    5.000000   19.999640   18.467049  1 Cwid
    5.000000   17.539639   19.887316  1 Cwid
    5.000000   19.999640   19.887316  1 Cwid
    5.000000   18.769640   20.597511  1 Cwid
    5.000000   11.389641   22.017778  1 Cwid
    5.000000   10.159640   22.727850  1 Cwid
    5.000000   12.619639   22.727850  1 Cwid
    5.000000   10.159640   24.148115  1 Cwid
    5.000000   12.619639   24.148115  1 Cwid
    5.000000   11.389641   24.858313  1 Cwid
    5.000000   13.849640   22.017778  1 Cwid
    5.000000   16.309641   22.017778  1 Cwid
    5.000000   15.079640   22.727850  1 Cwid
    5.000000   15.079640   24.148115  1 Cwid
    5.000000   13.849640   24.858313  1 Cwid
    5.000000   16.309641   24.858313  1 Cwid
    5.000000   18.769640   22.017778  1 Cwid
    5.000000   17.539639   22.727850  1 Cwid
    5.000000   19.999640   22.727850  1 Cwid
    5.000000   17.539639   24.148115  1 Cwid
    5.000000   19.999640   24.148115  1 Cwid
    5.000000   18.769640   24.858313  1 Cwid
    5.000000   11.389641  111.495499  1 Cwid
    5.000000   10.159640  112.205559  1 Cwid
    5.000000   12.619639  112.205559  1 Cwid
    5.000000   10.159640  113.625832  1 Cwid
    5.000000   12.619639  113.625832  1 Cwid
    5.000000   13.849640  111.495499  1 Cwid
    5.000000   16.309641  111.495499  1 Cwid
    5.000000   15.079640  112.205559  1 Cwid
    5.000000   15.079640  113.625832  1 Cwid
    5.000000   18.769640  111.495499  1 Cwid
    5.000000   17.539639  112.205559  1 Cwid
    5.000000   19.999640  112.205559  1 Cwid
    5.000000   17.539639  113.625832  1 Cwid
    5.000000   19.999640  113.625832  1 Cwid
    5.000000   11.389641  114.336029  1 Cwid
    5.000000   11.389641  115.756294  1 Cwid
    5.000000   10.159640  116.466492  1 Cwid
    5.000000   12.619639  116.466492  1 Cwid
    5.000000   13.849640  114.336029  1 Cwid
    5.000000   16.309641  114.336029  1 Cwid
    5.000000   13.849640  115.756294  1 Cwid
    5.000000   16.309641  115.756294  1 Cwid
    5.000000   15.079640  116.466492  1 Cwid
    5.000000   18.769640  114.336029  1 Cwid
    5.000000   18.769640  115.756294  1 Cwid
    5.000000   17.539639  116.466492  1 Cwid
    5.000000   19.999640  116.466492  1 Cwid
    5.000000   10.159640  117.886765  1 Cwid
    5.000000   12.619639  117.886765  1 Cwid
    5.000000   11.389641  118.596825  1 Cwid
    5.000000   11.389641  120.017097  1 Cwid
    5.000000   10.159640  120.727295  1 Cwid
    5.000000   12.619639  120.727295  1 Cwid
    5.000000   15.079640  117.886765  1 Cwid
    5.000000   13.849640  118.596825  1 Cwid
    5.000000   16.309641  118.596825  1 Cwid
    5.000000   13.849640  120.017097  1 Cwid
    5.000000   16.309641  120.017097  1 Cwid
    5.000000   15.079640  120.727295  1 Cwid
    5.000000   17.539639  117.886765  1 Cwid
    5.000000   19.999640  117.886765  1 Cwid
    5.000000   18.769640  118.596825  1 Cwid
    5.000000   18.769640  120.017097  1 Cwid
    5.000000   17.539639  120.727295  1 Cwid
    5.000000   19.999640  120.727295  1 Cwid
    5.000000   10.159640  122.147560  1 Cwid
    5.000000   12.619639  122.147560  1 Cwid
    5.000000   11.389641  122.857758  1 Cwid
    5.000000   11.389641  124.278030  1 Cwid
    5.000000   15.079640  122.147560  1 Cwid
    5.000000   13.849640  122.857758  1 Cwid
    5.000000   16.309641  122.857758  1 Cwid
    5.000000   13.849640  124.278030  1 Cwid
    5.000000   16.309641  124.278030  1 Cwid
    5.000000   17.539639  122.147560  1 Cwid
    5.000000   19.999640  122.147560  1 Cwid
    5.000000   18.769640  122.857758  1 Cwid
    5.000000   18.769640  124.278030  1 Cwid
    5.000000   10.159640  124.988098  1 Cwid
    5.000000   12.619639  124.988098  1 Cwid
    5.000000   10.159640  126.408363  1 Cwid
    5.000000   12.619639  126.408363  1 Cwid
    5.000000   11.389641  127.118561  1 Cwid
    5.000000   15.079640  124.988098  1 Cwid
    5.000000   15.079640  126.408363  1 Cwid
    5.000000   13.849640  127.118561  1 Cwid
    5.000000   16.309641  127.118561  1 Cwid
    5.000000   17.539639  124.988098  1 Cwid
    5.000000   19.999640  124.988098  1 Cwid
    5.000000   17.539639  126.408363  1 Cwid
    5.000000   19.999640  126.408363  1 Cwid
    5.000000   18.769640  127.118561  1 Cwid
    5.000000   11.389641  128.538818  1 Cwid
    5.000000   10.159640  129.249023  1 Cwid
    5.000000   12.619639  129.249023  1 Cwid
    5.000000   10.159640  130.669281  1 Cwid
    5.000000   12.619639  130.669281  1 Cwid
    5.000000   11.389641  131.379364  1 Cwid
    5.000000   13.849640  128.538818  1 Cwid
    5.000000   16.309641  128.538818  1 Cwid
    5.000000   15.079640  129.249023  1 Cwid
    5.000000   15.079640  130.669281  1 Cwid
    5.000000   13.849640  131.379364  1 Cwid
    5.000000   16.309641  131.379364  1 Cwid
    5.000000   18.769640  128.538818  1 Cwid
    5.000000   17.539639  129.249023  1 Cwid
    5.000000   19.999640  129.249023  1 Cwid
    5.000000   17.539639  130.669281  1 Cwid
    5.000000   19.999640  130.669281  1 Cwid
    5.000000   18.769640  131.379364  1 Cwid
    5.000000   21.229639    4.974321  1 Cwid
    5.000000   22.459641    5.684518  1 Cwid
    5.000000   22.459641    7.104785  1 Cwid
    5.000000   23.689640    4.974321  1 Cwid
    5.000000   26.149639    4.974321  1 Cwid
    5.000000   24.919641    5.684518  1 Cwid
    5.000000   24.919641    7.104785  1 Cwid
    5.000000   28.609640    4.974321  1 Cwid
    5.000000   27.379639    5.684518  1 Cwid
    5.000000   29.839640    5.684518  1 Cwid
    5.000000   27.379639    7.104785  1 Cwid
    5.000000   29.839640    7.104785  1 Cwid
    5.000000   21.229639    7.814983  1 Cwid
    5.000000   21.229639    9.235249  1 Cwid
    5.000000   22.459641    9.945318  1 Cwid
    5.000000   23.689640    7.814983  1 Cwid
    5.000000   26.149639    7.814983  1 Cwid
    5.000000   23.689640    9.235249  1 Cwid
    5.000000   26.149639    9.235249  1 Cwid
    5.000000   24.919641    9.945318  1 Cwid
    5.000000   28.609640    7.814983  1 Cwid
    5.000000   28.609640    9.235249  1 Cwid
    5.000000   27.379639    9.945318  1 Cwid
    5.000000   29.839640    9.945318  1 Cwid
    5.000000   22.459641   11.365585  1 Cwid
    5.000000   21.229639   12.075783  1 Cwid
    5.000000   21.229639   13.496050  1 Cwid
    5.000000   22.459641   14.206247  1 Cwid
    5.000000   24.919641   11.365585  1 Cwid
    5.000000   23.689640   12.075783  1 Cwid
    5.000000   26.149639   12.075783  1 Cwid
    5.000000   23.689640   13.496050  1 Cwid
    5.000000   26.149639   13.496050  1 Cwid
    5.000000   24.919641   14.206247  1 Cwid
    5.000000   27.379639   11.365585  1 Cwid
    5.000000   29.839640   11.365585  1 Cwid
    5.000000   28.609640   12.075783  1 Cwid
    5.000000   28.609640   13.496050  1 Cwid
    5.000000   27.379639   14.206247  1 Cwid
    5.000000   29.839640   14.206247  1 Cwid
    5.000000   22.459641   15.626514  1 Cwid
    5.000000   21.229639   16.336584  1 Cwid
    5.000000   21.229639   17.756851  1 Cwid
    5.000000   24.919641   15.626514  1 Cwid
    5.000000   23.689640   16.336584  1 Cwid
    5.000000   26.149639   16.336584  1 Cwid
    5.000000   23.689640   17.756851  1 Cwid
    5.000000   26.149639   17.756851  1 Cwid
    5.000000   27.379639   15.626514  1 Cwid
    5.000000   29.839640   15.626514  1 Cwid
    5.000000   28.609640   16.336584  1 Cwid
    5.000000   28.609640   17.756851  1 Cwid
    5.000000   22.459641   18.467049  1 Cwid
    5.000000   22.459641   19.887316  1 Cwid
    5.000000   21.229639   20.597511  1 Cwid
    5.000000   24.919641   18.467049  1 Cwid
    5.000000   24.919641   19.887316  1 Cwid
    5.000000   23.689640   20.597511  1 Cwid
    5.000000   26.149639   20.597511  1 Cwid
    5.000000   27.379639   18.467049  1 Cwid
    5.000000   29.839640   18.467049  1 Cwid
    5.000000   27.379639   19.887316  1 Cwid
    5.000000   29.839640   19.887316  1 Cwid
    5.000000   28.609640   20.597511  1 Cwid
    5.000000   21.229639   22.017778  1 Cwid
    5.000000   22.459641   22.727850  1 Cwid
    5.000000   22.459641   24.148115  1 Cwid
    5.000000   21.229639   24.858313  1 Cwid
    5.000000   23.689640   22.017778  1 Cwid
    5.000000   26.149639   22.017778  1 Cwid
    5.000000   24.919641   22.727850  1 Cwid
    5.000000   24.919641   24.148115  1 Cwid
    5.000000   23.689640   24.858313  1 Cwid
    5.000000   26.149639   24.858313  1 Cwid
    5.000000   28.609640   22.017778  1 Cwid
    5.000000   27.379639   22.727850  1 Cwid
    5.000000   29.839640   22.727850  1 Cwid
    5.000000   27.379639   24.148115  1 Cwid
    5.000000   29.839640   24.148115  1 Cwid
    5.000000   28.609640   24.858313  1 Cwid
    5.000000   21.229639  111.495499  1 Cwid
    5.000000   22.459641  112.205559  1 Cwid
    5.000000   22.459641  113.625832  1 Cwid
    5.000000   23.689640  111.495499  1 Cwid
    5.000000   26.149639  111.495499  1 Cwid
    5.000000   24.919641  112.205559  1 Cwid
    5.000000   24.919641  113.625832  1 Cwid
    5.000000   28.609640  111.495499  1 Cwid
    5.000000   27.379639  112.205559  1 Cwid
    5.000000   29.839640  112.205559  1 Cwid
    5.000000   27.379639  113.625832  1 Cwid
    5.000000   29.839640  113.625832  1 Cwid
    5.000000   21.229639  114.336029  1 Cwid
    5.000000   21.229639  115.756294  1 Cwid
    5.000000   22.459641  116.466492  1 Cwid
    5.000000   23.689640  114.336029  1 Cwid
    5.000000   26.149639  114.336029  1 Cwid
    5.000000   23.689640  115.756294  1 Cwid
    5.000000   26.149639  115.756294  1 Cwid
    5.000000   24.919641  116.466492  1 Cwid
    5.000000   28.609640  114.336029  1 Cwid
    5.000000   28.609640  115.756294  1 Cwid
    5.000000   27.379639  116.466492  1 Cwid
    5.000000   29.839640  116.466492  1 Cwid
    5.000000   22.459641  117.886765  1 Cwid
    5.000000   21.229639  118.596825  1 Cwid
    5.000000   21.229639  120.017097  1 Cwid
    5.000000   22.459641  120.727295  1 Cwid
    5.000000   24.919641  117.886765  1 Cwid
    5.000000   23.689640  118.596825  1 Cwid
    5.000000   26.149639  118.596825  1 Cwid
    5.000000   23.689640  120.017097  1 Cwid
    5.000000   26.149639  120.017097  1 Cwid
    5.000000   24.919641  120.727295  1 Cwid
    5.000000   27.379639  117.886765  1 Cwid
    5.000000   29.839640  117.886765  1 Cwid
    5.000000   28.609640  118.596825  1 Cwid
    5.000000   28.609640  120.017097  1 Cwid
    5.000000   27.379639  120.727295  1 Cwid
    5.000000   29.839640  120.727295  1 Cwid
    5.000000   22.459641  122.147560  1 Cwid
    5.000000   21.229639  122.857758  1 Cwid
    5.000000   21.229639  124.278030  1 Cwid
    5.000000   24.919641  122.147560  1 Cwid
    5.000000   23.689640  122.857758  1 Cwid
    5.000000   26.149639  122.857758  1 Cwid
    5.000000   23.689640  124.278030  1 Cwid
    5.000000   26.149639  124.278030  1 Cwid
    5.000000   27.379639  122.147560  1 Cwid
    5.000000   29.839640  122.147560  1 Cwid
    5.000000   28.609640  122.857758  1 Cwid
    5.000000   28.609640  124.278030  1 Cwid
    5.000000   22.459641  124.988098  1 Cwid
    5.000000   22.459641  126.408363  1 Cwid
    5.000000   21.229639  127.118561  1 Cwid
    5.000000   24.919641  124.988098  1 Cwid
    5.000000   24.919641  126.408363  1 Cwid
    5.000000   23.689640  127.118561  1 Cwid
    5.000000   26.149639  127.118561  1 Cwid
    5.000000   27.379639  124.988098  1 Cwid
    5.000000   29.839640  124.988098  1 Cwid
    5.000000   27.379639  126.408363  1 Cwid
    5.000000   29.839640  126.408363  1 Cwid
    5.000000   28.609640  127.118561  1 Cwid
    5.000000   21.229639  128.538818  1 Cwid
    5.000000   22.459641  129.249023  1 Cwid
    5.000000   22.459641  130.669281  1 Cwid
    5.000000   21.229639  131.379364  1 Cwid
    5.000000   23.689640  128.538818  1 Cwid
    5.000000   26.149639  128.538818  1 Cwid
    5.000000   24.919641  129.249023  1 Cwid
    5.000000   24.919641  130.669281  1 Cwid
    5.000000   23.689640  131.379364  1 Cwid
    5.000000   26.149639  131.379364  1 Cwid
    5.000000   28.609640  128.538818  1 Cwid
    5.000000   27.379639  129.249023  1 Cwid
    5.000000   29.839640  129.249023  1 Cwid
    5.000000   27.379639  130.669281  1 Cwid
    5.000000   29.839640  130.669281  1 Cwid
    5.000000   28.609640  131.379364  1 Cwid
    5.000000    9.215560    5.139471  2 H
    5.000000    9.215560    7.649832  2 H
    5.000000    9.215560    9.400272  2 H
    5.000000    9.215560   11.910761  2 H
    5.000000    9.215560   13.661200  2 H
    5.000000    9.215560   16.171562  2 H
    5.000000    9.215560   17.922001  2 H
    5.000000    9.215560   20.432362  2 H
    5.000000    9.215560   22.182800  2 H
    5.000000    9.215560   24.693291  2 H
    5.000000    9.215560  111.660515  2 H
    5.000000    9.215560  114.170876  2 H
    5.000000    9.215560  115.921318  2 H
    5.000000    9.215560  118.431808  2 H
    5.000000    9.215560  120.182243  2 H
    5.000000    9.215560  122.692612  2 H
    5.000000    9.215560  124.443047  2 H
    5.000000    9.215560  126.953407  2 H
    5.000000    9.215560  128.703842  2 H
    5.000000    9.215560  131.214325  2 H
    5.000000   11.389641   25.948408  2 H
    5.000000   12.905560   26.823627  2 H
    5.000000   12.905560   28.574068  2 H
    5.000000   12.905560   31.084557  2 H
    5.000000   12.905560   32.834995  2 H
    5.000000   12.905560   35.345360  2 H
    5.000000   12.905560   37.095795  2 H
    5.000000   12.905560   39.606159  2 H
    5.000000   12.905560   41.356598  2 H
    5.000000   12.905560   43.867085  2 H
    5.000000   12.905560   45.617397  2 H
    5.000000   12.905560   48.127888  2 H
    5.000000   12.905560   49.878326  2 H
    5.000000   12.905560   52.388687  2 H
    5.000000   12.905560   54.139126  2 H
    5.000000   12.905560   56.649490  2 H
    5.000000   12.905560   58.399929  2 H
    5.000000   12.905560   60.910416  2 H
    5.000000   12.905560   62.660858  2 H
    5.000000   12.905560   65.171219  2 H
    5.000000   12.905560   66.921654  2 H
    5.000000   12.905560   69.432022  2 H
    5.000000   12.905560   71.182465  2 H
    5.000000   12.905560   73.692947  2 H
    5.000000   12.905560   75.443390  2 H
    5.000000   12.905560   77.953751  2 H
    5.000000   12.905560   79.704185  2 H
    5.000000   12.905560   82.214554  2 H
    5.000000   12.905560   83.964989  2 H
    5.000000   12.905560   86.475479  2 H
    5.000000   12.905560   88.225922  2 H
    5.000000   12.905560   90.736282  2 H
    5.000000   12.905560   92.486725  2 H
    5.000000   12.905560   94.997086  2 H
    5.000000   12.905560   96.747520  2 H
    5.000000   12.905560   99.258011  2 H
    5.000000   12.905560  101.008453  2 H
    5.000000   12.905560  103.518806  2 H
    5.000000   12.905560  105.269257  2 H
    5.000000   12.905560  107.779610  2 H
    5.000000   12.905560  109.530052  2 H
    5.000000   11.389641  110.405273  2 H
    5.000000   28.609640   25.948408  2 H
    5.000000   27.093719   26.823627  2 H
    5.000000   27.093719   28.574068  2 H
    5.000000   27.093719   31.084429  2 H
    5.000000   27.093719   32.834995  2 H
    5.000000   27.093719   35.345360  2 H
    5.000000   27.093719   37.095795  2 H
    5.000000   27.093719   39.606159  2 H
    5.000000   27.093719   41.356598  2 H
    5.000000   27.093719   43.866959  2 H
    5.000000   27.093719   45.617397  2 H
    5.000000   27.093719   48.127888  2 H
    5.000000   27.093719   49.878326  2 H
    5.000000   27.093719   52.388687  2 H
    5.000000   27.093719   54.139126  2 H
    5.000000   27.093719   56.649490  2 H
    5.000000   27.093719   58.399929  2 H
    5.000000   27.093719   60.910416  2 H
    5.000000   27.093719   62.660858  2 H
    5.000000   27.093719   65.171219  2 H
    5.000000   27.093719   66.921654  2 H
    5.000000   27.093719   69.432022  2 H
    5.000000   27.093719   71.182465  2 H
    5.000000   27.093719   73.692947  2 H
    5.000000   27.093719   75.443390  2 H
    5.000000   27.093719   77.953751  2 H
    5.000000   27.093719   79.704185  2 H
    5.000000   27.093719   82.214554  2 H
    5.000000   27.093719   83.964989  2 H
    5.000000   27.093719   86.475479  2 H
    5.000000   27.093719   88.225922  2 H
    5.000000   27.093719   90.736282  2 H
    5.000000   27.093719   92.486725  2 H
    5.000000   27.093719   94.997086  2 H
    5.000000   27.093719   96.747520  2 H
    5.000000   27.093719   99.258011  2 H
    5.000000   27.093719  101.008453  2 H
    5.000000   27.093719  103.518806  2 H
    5.000000   27.093719  105.269257  2 H
    5.000000   27.093719  107.779610  2 H
    5.000000   27.093719  109.530052  2 H
    5.000000   28.609640  110.405273  2 H
    5.000000   30.783720    5.139471  2 H
    5.000000   30.783720    7.649832  2 H
    5.000000   30.783720    9.400272  2 H
    5.000000   30.783720   11.910761  2 H
    5.000000   30.783720   13.661200  2 H
    5.000000   30.783720   16.171562  2 H
    5.000000   30.783720   17.922001  2 H
    5.000000   30.783720   20.432362  2 H
    5.000000   30.783720   22.182800  2 H
    5.000000   30.783720   24.693291  2 H
    5.000000   30.783720  111.660515  2 H
    5.000000   30.783720  114.170876  2 H
    5.000000   30.783720  115.921318  2 H
    5.000000   30.783720  118.431808  2 H
    5.000000   30.783720  120.182243  2 H
    5.000000   30.783720  122.692612  2 H
    5.000000   30.783720  124.443047  2 H
    5.000000   30.783720  126.953407  2 H
    5.000000   30.783720  128.703842  2 H
    5.000000   30.783720  131.214325  2 H
    5.000000   13.849640   26.278580  3 Cnar
    5.000000   16.309641   26.278580  3 Cnar
    5.000000   15.079640   26.988777  3 Cnar
    5.000000   15.079640   28.409044  3 Cnar
    5.000000   18.769640   26.278580  3 Cnar
    5.000000   17.539639   26.988777  3 Cnar
    5.000000   19.999640   26.988777  3 Cnar
    5.000000   17.539639   28.409044  3 Cnar
    5.000000   19.999640   28.409044  3 Cnar
    5.000000   13.849640   29.119114  3 Cnar
    5.000000   16.309641   29.119114  3 Cnar
    5.000000   13.849640   30.539379  3 Cnar
    5.000000   16.309641   30.539379  3 Cnar
    5.000000   15.079640   31.249577  3 Cnar
    5.000000   18.769640   29.119114  3 Cnar
    5.000000   18.769640   30.539379  3 Cnar
    5.000000   17.539639   31.249577  3 Cnar
    5.000000   19.999640   31.249577  3 Cnar
    5.000000   15.079640   32.669846  3 Cnar
    5.000000   13.849640   33.380043  3 Cnar
    5.000000   16.309641   33.380043  3 Cnar
    5.000000   13.849640   34.800308  3 Cnar
    5.000000   16.309641   34.800308  3 Cnar
    5.000000   15.079640   35.510380  3 Cnar
    5.000000   17.539639   32.669846  3 Cnar
    5.000000   19.999640   32.669846  3 Cnar
    5.000000   18.769640   33.380043  3 Cnar
    5.000000   18.769640   34.800308  3 Cnar
    5.000000   17.539639   35.510380  3 Cnar
    5.000000   19.999640   35.510380  3 Cnar
    5.000000   15.079640   36.930645  3 Cnar
    5.000000   13.849640   37.640842  3 Cnar
    5.000000   16.309641   37.640842  3 Cnar
    5.000000   13.849640   39.061111  3 Cnar
    5.000000   16.309641   39.061111  3 Cnar
    5.000000   17.539639   36.930645  3 Cnar
    5.000000   19.999640   36.930645  3 Cnar
    5.000000   18.769640   37.640842  3 Cnar
    5.000000   18.769640   39.061111  3 Cnar
    5.000000   15.079640   39.771309  3 Cnar
    5.000000   15.079640   41.191574  3 Cnar
    5.000000   13.849640   41.901642  3 Cnar
    5.000000   16.309641   41.901642  3 Cnar
    5.000000   17.539639   39.771309  3 Cnar
    5.000000   19.999640   39.771309  3 Cnar
    5.000000   17.539639   41.191574  3 Cnar
    5.000000   19.999640   41.191574  3 Cnar
    5.000000   18.769640   41.901642  3 Cnar
    5.000000   13.849640   43.321911  3 Cnar
    5.000000   16.309641   43.321911  3 Cnar
    5.000000   15.079640   44.032108  3 Cnar
    5.000000   15.079640   45.452374  3 Cnar
    5.000000   13.849640   46.162575  3 Cnar
    5.000000   16.309641   46.162575  3 Cnar
    5.000000   18.769640   43.321911  3 Cnar
    5.000000   17.539639   44.032108  3 Cnar
    5.000000   19.999640   44.032108  3 Cnar
    5.000000   17.539639   45.452374  3 Cnar
    5.000000   19.999640   45.452374  3 Cnar
    5.000000   18.769640   46.162575  3 Cnar
    5.000000   13.849640   47.582840  3 Cnar
    5.000000   16.309641   47.582840  3 Cnar
    5.000000   15.079640   48.292912  3 Cnar
    5.000000   15.079640   49.713177  3 Cnar
    5.000000   18.769640   47.582840  3 Cnar
    5.000000   17.539639   48.292912  3 Cnar
    5.000000   19.999640   48.292912  3 Cnar
    5.000000   17.539639   49.713177  3 Cnar
    5.000000   19.999640   49.713177  3 Cnar
    5.000000   13.849640   50.423370  3 Cnar
    5.000000   16.309641   50.423370  3 Cnar
    5.000000   13.849640   51.843639  3 Cnar
    5.000000   16.309641   51.843639  3 Cnar
    5.000000   15.079640   52.553837  3 Cnar
    5.000000   18.769640   50.423370  3 Cnar
    5.000000   18.769640   51.843639  3 Cnar
    5.000000   17.539639   52.553837  3 Cnar
    5.000000   19.999640   52.553837  3 Cnar
    5.000000   15.079640   53.974102  3 Cnar
    5.000000   13.849640   54.684174  3 Cnar
    5.000000   16.309641   54.684174  3 Cnar
    5.000000   13.849640   56.104443  3 Cnar
    5.000000   16.309641   56.104443  3 Cnar
    5.000000   15.079640   56.814640  3 Cnar
    5.000000   17.539639   53.974102  3 Cnar
    5.000000   19.999640   53.974102  3 Cnar
    5.000000   18.769640   54.684174  3 Cnar
    5.000000   18.769640   56.104443  3 Cnar
    5.000000   17.539639   56.814640  3 Cnar
    5.000000   19.999640   56.814640  3 Cnar
    5.000000   15.079640   58.234905  3 Cnar
    5.000000   13.849640   58.945103  3 Cnar
    5.000000   16.309641   58.945103  3 Cnar
    5.000000   13.849640   60.365368  3 Cnar
    5.000000   16.309641   60.365368  3 Cnar
    5.000000   17.539639   58.234905  3 Cnar
    5.000000   19.999640   58.234905  3 Cnar
    5.000000   18.769640   58.945103  3 Cnar
    5.000000   18.769640   60.365368  3 Cnar
    5.000000   15.079640   61.075439  3 Cnar
    5.000000   15.079640   62.495705  3 Cnar
    5.000000   13.849640   63.205906  3 Cnar
    5.000000   16.309641   63.205906  3 Cnar
    5.000000   17.539639   61.075439  3 Cnar
    5.000000   19.999640   61.075439  3 Cnar
    5.000000   17.539639   62.495705  3 Cnar
    5.000000   19.999640   62.495705  3 Cnar
    5.000000   18.769640   63.205906  3 Cnar
    5.000000   13.849640   64.626175  3 Cnar
    5.000000   16.309641   64.626175  3 Cnar
    5.000000   15.079640   65.336365  3 Cnar
    5.000000   15.079640   66.756638  3 Cnar
    5.000000   13.849640   67.466705  3 Cnar
    5.000000   16.309641   67.466705  3 Cnar
    5.000000   18.769640   64.626175  3 Cnar
    5.000000   17.539639   65.336365  3 Cnar
    5.000000   19.999640   65.336365  3 Cnar
    5.000000   17.539639   66.756638  3 Cnar
    5.000000   19.999640   66.756638  3 Cnar
    5.000000   18.769640   67.466705  3 Cnar
    5.000000   13.849640   68.886971  3 Cnar
    5.000000   16.309641   68.886971  3 Cnar
    5.000000   15.079640   69.597176  3 Cnar
    5.000000   15.079640   71.017441  3 Cnar
    5.000000   18.769640   68.886971  3 Cnar
    5.000000   17.539639   69.597176  3 Cnar
    5.000000   19.999640   69.597176  3 Cnar
    5.000000   17.539639   71.017441  3 Cnar
    5.000000   19.999640   71.017441  3 Cnar
    5.000000   13.849640   71.727631  3 Cnar
    5.000000   16.309641   71.727631  3 Cnar
    5.000000   13.849640   73.147903  3 Cnar
    5.000000   16.309641   73.147903  3 Cnar
    5.000000   15.079640   73.857979  3 Cnar
    5.000000   18.769640   71.727631  3 Cnar
    5.000000   18.769640   73.147903  3 Cnar
    5.000000   17.539639   73.857979  3 Cnar
    5.000000   19.999640   73.857979  3 Cnar
    5.000000   15.079640   75.278236  3 Cnar
    5.000000   13.849640   75.988434  3 Cnar
    5.000000   16.309641   75.988434  3 Cnar
    5.000000   13.849640   77.408707  3 Cnar
    5.000000   16.309641   77.408707  3 Cnar
    5.000000   15.079640   78.118896  3 Cnar
    5.000000   17.539639   75.278236  3 Cnar
    5.000000   19.999640   75.278236  3 Cnar
    5.000000   18.769640   75.988434  3 Cnar
    5.000000   18.769640   77.408707  3 Cnar
    5.000000   17.539639   78.118896  3 Cnar
    5.000000   19.999640   78.118896  3 Cnar
    5.000000   15.079640   79.539169  3 Cnar
    5.000000   13.849640   80.249237  3 Cnar
    5.000000   16.309641   80.249237  3 Cnar
    5.000000   13.849640   81.669502  3 Cnar
    5.000000   16.309641   81.669502  3 Cnar
    5.000000   17.539639   79.539169  3 Cnar
    5.000000   19.999640   79.539169  3 Cnar
    5.000000   18.769640   80.249237  3 Cnar
    5.000000   18.769640   81.669502  3 Cnar
    5.000000   15.079640   82.379700  3 Cnar
    5.000000   15.079640   83.799973  3 Cnar
    5.000000   13.849640   84.510170  3 Cnar
    5.000000   16.309641   84.510170  3 Cnar
    5.000000   17.539639   82.379700  3 Cnar
    5.000000   19.999640   82.379700  3 Cnar
    5.000000   17.539639   83.799973  3 Cnar
    5.000000   19.999640   83.799973  3 Cnar
    5.000000   18.769640   84.510170  3 Cnar
    5.000000   13.849640   85.930435  3 Cnar
    5.000000   16.309641   85.930435  3 Cnar
    5.000000   15.079640   86.640503  3 Cnar