graphene6-3-CO
   1
30.000000000000000 0.000000000000000000 0.000000000000000000
0.000000000000000000 14.757100100000001 0.000000000000000000
0.000000000000000000 0.000000000000000000 12.779999699999999
C O
73 1
Selective Dynamics
Direct
0.500000000000 0.125000000000 0.055555600000 F F F 
0.500000000000 0.041666600000 0.111111000000 F F F 
0.500000000000 0.208333000000 0.111111000000 F F F 
0.500000000000 0.041666600000 0.222222000000 F F F 
0.500000000000 0.208333000000 0.222222000000 F F F 
0.500000000000 0.291666000000 0.055555600000 F F F 
0.500000000000 0.458332000000 0.055555600000 F F F 
0.500000000000 0.374999000000 0.111111000000 F F F 
0.500000000000 0.374999000000 0.222222000000 F F F 
0.500000000000 0.624999000000 0.055555600000 F F F 
0.500000000000 0.541666000000 0.111111000000 F F F 
0.500000000000 0.708332000000 0.111111000000 F F F 
0.500000000000 0.541666000000 0.222222000000 F F F 
0.500000000000 0.708332000000 0.222222000000 F F F 
0.500000000000 0.791665000000 0.055555600000 F F F 
0.500000000000 0.958332000000 0.055555600000 F F F 
0.500000000000 0.874998000000 0.111111000000 F F F 
0.500000000000 0.874998000000 0.222222000000 F F F 
0.500000000000 0.125000000000 0.277778000000 F F F 
0.500000000000 0.125000000000 0.388889000000 F F F 
0.500000000000 0.041666600000 0.444444000000 F F F 
0.500000000000 0.208333000000 0.444444000000 F F F 
0.500000000000 0.291666000000 0.277778000000 F F F 
0.500000000000 0.458332000000 0.277778000000 F F F 
0.500000000000 0.291666000000 0.388889000000 F F F 
0.500000000000 0.458332000000 0.388889000000 F F F 
0.500000000000 0.374999000000 0.444444000000 F F F 
0.500000000000 0.624999000000 0.277778000000 F F F 
0.500000000000 0.624999000000 0.388889000000 F F F 
0.500000000000 0.541666000000 0.444444000000 F F F 
0.500000000000 0.708332000000 0.444444000000 F F F 
0.500000000000 0.791665000000 0.277778000000 F F F 
0.500000000000 0.958332000000 0.277778000000 F F F 
0.500000000000 0.791665000000 0.388889000000 F F F 
0.500000000000 0.958332000000 0.388889000000 F F F 
0.500000000000 0.874998000000 0.444444000000 F F F 
0.500000000000 0.041666600000 0.555556000000 F F F 
0.500000000000 0.208333000000 0.555556000000 F F F 
0.500000000000 0.125000000000 0.611111000000 F F F 
0.500000000000 0.125000000000 0.722222000000 F F F 
0.500000000000 0.374999000000 0.555556000000 F F F 
0.500000000000 0.291666000000 0.611111000000 F F F 
0.500000000000 0.458332000000 0.611111000000 F F F 
0.500000000000 0.291666000000 0.722222000000 F F F 
0.500000000000 0.458332000000 0.722222000000 F F F 
0.500000000000 0.541666000000 0.555556000000 F F F 
0.500000000000 0.708332000000 0.555556000000 F F F 
0.500000000000 0.624999000000 0.611111000000 F F F 
0.500000000000 0.624999000000 0.722222000000 F F F 
0.500000000000 0.874998000000 0.555556000000 F F F 
0.500000000000 0.791665000000 0.611111000000 F F F 
0.500000000000 0.958332000000 0.611111000000 F F F 
0.500000000000 0.791665000000 0.722222000000 F F F 
0.500000000000 0.958332000000 0.722222000000 F F F 
0.500000000000 0.041666600000 0.777778000000 F F F 
0.500000000000 0.208333000000 0.777778000000 F F F 
0.500000000000 0.041666600000 0.888889000000 F F F 
0.500000000000 0.208333000000 0.888889000000 F F F 
0.500000000000 0.125000000000 0.944444000000 F F F 
0.500000000000 0.374999000000 0.777778000000 F F F 
0.500000000000 0.374999000000 0.888889000000 F F F 
0.500000000000 0.291666000000 0.944444000000 F F F 
0.500000000000 0.458332000000 0.944444000000 F F F 
0.500000000000 0.541666000000 0.777778000000 F F F 
0.500000000000 0.708332000000 0.777778000000 F F F 
0.500000000000 0.541666000000 0.888889000000 F F F 
0.500000000000 0.708332000000 0.888889000000 F F F 
0.500000000000 0.624999000000 0.944444000000 F F F 
0.500000000000 0.874998000000 0.777778000000 F F F 
0.500000000000 0.874998000000 0.888889000000 F F F 
0.500000000000 0.791665000000 0.944444000000 F F F 
0.500000000000 0.958332000000 0.944444000000 F F F 
0.633333 0.541666   0.500 T T T 
0.633333 0.374999   0.500 T T T 
