graphene6-3-CO                          
   1.00000000000000     
    29.7319657606002856    0.0031296862441496    0.0000000000000000
     0.0015453998888453   14.7552331897817002    0.0000000000000000
     0.0000000000000000    0.0000000000000000   12.8654670727811453
   C    O 
  73   1
Selective dynamics
Direct
  0.5000000000000000  0.1250000000000000  0.0555555999999982   T   T   T
  0.5000000000000000  0.0416665999999992  0.1111110000000011   T   T   T
  0.5000000000000000  0.2083330000000032  0.1111110000000011   T   T   T
  0.5000000000000000  0.0416665999999992  0.2222220000000021   T   T   T
  0.5000000000000000  0.2083330000000032  0.2222220000000021   T   T   T
  0.5000000000000000  0.2916659999999993  0.0555555999999982   T   T   T
  0.5000000000000000  0.4583319999999986  0.0555555999999982   T   T   T
  0.5000000000000000  0.3749990000000025  0.1111110000000011   T   T   T
  0.5000000000000000  0.3749990000000025  0.2222220000000021   T   T   T
  0.5000000000000000  0.6249990000000025  0.0555555999999982   T   T   T
  0.5000000000000000  0.5416659999999993  0.1111110000000011   T   T   T
  0.5000000000000000  0.7083319999999986  0.1111110000000011   T   T   T
  0.5000000000000000  0.5416659999999993  0.2222220000000021   T   T   T
  0.5000000000000000  0.7083319999999986  0.2222220000000021   T   T   T
  0.5000000000000000  0.7916650000000018  0.0555555999999982   T   T   T
  0.5000000000000000  0.9583319999999986  0.0555555999999982   T   T   T
  0.5000000000000000  0.8749979999999979  0.1111110000000011   T   T   T
  0.5000000000000000  0.8749979999999979  0.2222220000000021   T   T   T
  0.5000000000000000  0.1250000000000000  0.2777779999999979   T   T   T
  0.5000000000000000  0.1250000000000000  0.3888889999999989   T   T   T
  0.5000000000000000  0.0416665999999992  0.4444439999999972   T   T   T
  0.5000000000000000  0.2083330000000032  0.4444439999999972   T   T   T
  0.5000000000000000  0.2916659999999993  0.2777779999999979   T   T   T
  0.5000000000000000  0.4583319999999986  0.2777779999999979   T   T   T
  0.5000000000000000  0.2916659999999993  0.3888889999999989   T   T   T
  0.5000000000000000  0.4583319999999986  0.3888889999999989   T   T   T
  0.5000000000000000  0.3749990000000025  0.4444439999999972   T   T   T
  0.5000000000000000  0.6249990000000025  0.2777779999999979   T   T   T
  0.5000000000000000  0.6249990000000025  0.3888889999999989   T   T   T
  0.5000000000000000  0.5416659999999993  0.4444439999999972   T   T   T
  0.5000000000000000  0.7083319999999986  0.4444439999999972   T   T   T
  0.5000000000000000  0.7916650000000018  0.2777779999999979   T   T   T
  0.5000000000000000  0.9583319999999986  0.2777779999999979   T   T   T
  0.5000000000000000  0.7916650000000018  0.3888889999999989   T   T   T
  0.5000000000000000  0.9583319999999986  0.3888889999999989   T   T   T
  0.5000000000000000  0.8749979999999979  0.4444439999999972   T   T   T
  0.5000000000000000  0.0416665999999992  0.5555560000000028   T   T   T
  0.5000000000000000  0.2083330000000032  0.5555560000000028   T   T   T
  0.5000000000000000  0.1250000000000000  0.6111110000000011   T   T   T
  0.5000000000000000  0.1250000000000000  0.7222220000000021   T   T   T
  0.5000000000000000  0.3749990000000025  0.5555560000000028   T   T   T
  0.5000000000000000  0.2916659999999993  0.6111110000000011   T   T   T
  0.5000000000000000  0.4583319999999986  0.6111110000000011   T   T   T
  0.5000000000000000  0.2916659999999993  0.7222220000000021   T   T   T
  0.5000000000000000  0.4583319999999986  0.7222220000000021   T   T   T
  0.5000000000000000  0.5416659999999993  0.5555560000000028   T   T   T
  0.5000000000000000  0.7083319999999986  0.5555560000000028   T   T   T
  0.5000000000000000  0.6249990000000025  0.6111110000000011   T   T   T
  0.5000000000000000  0.6249990000000025  0.7222220000000021   T   T   T
  0.5000000000000000  0.8749979999999979  0.5555560000000028   T   T   T
  0.5000000000000000  0.7916650000000018  0.6111110000000011   T   T   T
  0.5000000000000000  0.9583319999999986  0.6111110000000011   T   T   T
  0.5000000000000000  0.7916650000000018  0.7222220000000021   T   T   T
  0.5000000000000000  0.9583319999999986  0.7222220000000021   T   T   T
  0.5000000000000000  0.0416665999999992  0.7777779999999979   T   T   T
  0.5000000000000000  0.2083330000000032  0.7777779999999979   T   T   T
  0.5000000000000000  0.0416665999999992  0.8888889999999989   T   T   T
  0.5000000000000000  0.2083330000000032  0.8888889999999989   T   T   T
  0.5000000000000000  0.1250000000000000  0.9444439999999972   T   T   T
  0.5000000000000000  0.3749990000000025  0.7777779999999979   T   T   T
  0.5000000000000000  0.3749990000000025  0.8888889999999989   T   T   T
  0.5000000000000000  0.2916659999999993  0.9444439999999972   T   T   T
  0.5000000000000000  0.4583319999999986  0.9444439999999972   T   T   T
  0.5000000000000000  0.5416659999999993  0.7777779999999979   T   T   T
  0.5000000000000000  0.7083319999999986  0.7777779999999979   T   T   T
  0.5000000000000000  0.5416659999999993  0.8888889999999989   T   T   T
  0.5000000000000000  0.7083319999999986  0.8888889999999989   T   T   T
  0.5000000000000000  0.6249990000000025  0.9444439999999972   T   T   T
  0.5000000000000000  0.8749979999999979  0.7777779999999979   T   T   T
  0.5000000000000000  0.8749979999999979  0.8888889999999989   T   T   T
  0.5000000000000000  0.7916650000000018  0.9444439999999972   T   T   T
  0.5000000000000000  0.9583319999999986  0.9444439999999972   T   T   T                            
  0.6331331698612221  0.4966401498922421  0.5000000000000000   T   T   T
  0.6331524369137269  0.4192405729727538  0.5000000000000000   T   T   T
 
  0.00000000E+00  0.00000000E+00  0.00000000E+00
  0.00000000E+00  0.00000000E+00  0.00000000E+00
  0.00000000E+00  0.00000000E+00  0.00000000E+00
  0.00000000E+00  0.00000000E+00  0.00000000E+00
  0.00000000E+00  0.00000000E+00  0.00000000E+00
  0.00000000E+00  0.00000000E+00  0.00000000E+00
  0.00000000E+00  0.00000000E+00  0.00000000E+00
  0.00000000E+00  0.00000000E+00  0.00000000E+00
  0.00000000E+00  0.00000000E+00  0.00000000E+00
  0.00000000E+00  0.00000000E+00  0.00000000E+00
  0.00000000E+00  0.00000000E+00  0.00000000E+00
  0.00000000E+00  0.00000000E+00  0.00000000E+00
  0.00000000E+00  0.00000000E+00  0.00000000E+00
  0.00000000E+00  0.00000000E+00  0.00000000E+00
  0.00000000E+00  0.00000000E+00  0.00000000E+00
  0.00000000E+00  0.00000000E+00  0.00000000E+00
  0.00000000E+00  0.00000000E+00  0.00000000E+00
  0.00000000E+00  0.00000000E+00  0.00000000E+00
  0.00000000E+00  0.00000000E+00  0.00000000E+00
  0.00000000E+00  0.00000000E+00  0.00000000E+00
  0.00000000E+00  0.00000000E+00  0.00000000E+00
  0.00000000E+00  0.00000000E+00  0.00000000E+00
  0.00000000E+00  0.00000000E+00  0.00000000E+00
  0.00000000E+00  0.00000000E+00  0.00000000E+00
  0.00000000E+00  0.00000000E+00  0.00000000E+00
  0.00000000E+00  0.00000000E+00  0.00000000E+00
  0.00000000E+00  0.00000000E+00  0.00000000E+00
  0.00000000E+00  0.00000000E+00  0.00000000E+00
  0.00000000E+00  0.00000000E+00  0.00000000E+00
  0.00000000E+00  0.00000000E+00  0.00000000E+00
  0.00000000E+00  0.00000000E+00  0.00000000E+00
  0.00000000E+00  0.00000000E+00  0.00000000E+00
  0.00000000E+00  0.00000000E+00  0.00000000E+00
  0.00000000E+00  0.00000000E+00  0.00000000E+00
  0.00000000E+00  0.00000000E+00  0.00000000E+00
  0.00000000E+00  0.00000000E+00  0.00000000E+00
  0.00000000E+00  0.00000000E+00  0.00000000E+00
  0.00000000E+00  0.00000000E+00  0.00000000E+00
  0.00000000E+00  0.00000000E+00  0.00000000E+00
  0.00000000E+00  0.00000000E+00  0.00000000E+00
  0.00000000E+00  0.00000000E+00  0.00000000E+00
  0.00000000E+00  0.00000000E+00  0.00000000E+00
  0.00000000E+00  0.00000000E+00  0.00000000E+00
  0.00000000E+00  0.00000000E+00  0.00000000E+00
  0.00000000E+00  0.00000000E+00  0.00000000E+00
  0.00000000E+00  0.00000000E+00  0.00000000E+00
  0.00000000E+00  0.00000000E+00  0.00000000E+00
  0.00000000E+00  0.00000000E+00  0.00000000E+00
  0.00000000E+00  0.00000000E+00  0.00000000E+00
  0.00000000E+00  0.00000000E+00  0.00000000E+00
  0.00000000E+00  0.00000000E+00  0.00000000E+00
  0.00000000E+00  0.00000000E+00  0.00000000E+00
  0.00000000E+00  0.00000000E+00  0.00000000E+00
  0.00000000E+00  0.00000000E+00  0.00000000E+00
  0.00000000E+00  0.00000000E+00  0.00000000E+00
  0.00000000E+00  0.00000000E+00  0.00000000E+00
  0.00000000E+00  0.00000000E+00  0.00000000E+00
  0.00000000E+00  0.00000000E+00  0.00000000E+00
  0.00000000E+00  0.00000000E+00  0.00000000E+00
  0.00000000E+00  0.00000000E+00  0.00000000E+00
  0.00000000E+00  0.00000000E+00  0.00000000E+00
  0.00000000E+00  0.00000000E+00  0.00000000E+00
  0.00000000E+00  0.00000000E+00  0.00000000E+00
  0.00000000E+00  0.00000000E+00  0.00000000E+00
  0.00000000E+00  0.00000000E+00  0.00000000E+00
  0.00000000E+00  0.00000000E+00  0.00000000E+00
  0.00000000E+00  0.00000000E+00  0.00000000E+00
  0.00000000E+00  0.00000000E+00  0.00000000E+00
  0.00000000E+00  0.00000000E+00  0.00000000E+00
  0.00000000E+00  0.00000000E+00  0.00000000E+00
  0.00000000E+00  0.00000000E+00  0.00000000E+00
  0.00000000E+00  0.00000000E+00  0.00000000E+00
  0.00000000E+00  0.00000000E+00  0.00000000E+00
  0.00000000E+00  0.00000000E+00  0.00000000E+00
