POSCAR(VASP)_with_position(SIESTA)
1.0
   10.299999    0.000000    0.000000
    0.000000   72.099998    0.000000
    0.000000    0.000000  131.660065
     C     H     C
   820   148   440
Cartesian
    5.150000   11.616464    0.734980 F F T # C
    5.150000   10.349594    1.466430 F F F # C
    5.150000   10.349594    2.929318 F F F # C
    5.150000   11.616464    3.660755 F F F # C
    5.150000   11.616464    5.123644 F F F # C
    5.150000   10.349594    5.855094 F F F # C
    5.150000   10.349594    7.317982 F F F # C
    5.150000   11.616464    8.049433 F F F # C
    5.150000   11.616464    9.512321 F F F # C
    5.150000   10.349594   10.243758 F F F # C
    5.150000   10.349594   11.706646 F F F # C
    5.150000   11.616464   12.438096 F F F # C
    5.150000   11.616464   13.900932 F F F # C
    5.150000   10.349594   14.632436 F F F # C
    5.150000   10.349594   16.095310 F F F # C
    5.150000   11.616464   16.826813 F F F # C
    5.150000   11.616464   18.289688 F F F # C
    5.150000   10.349594   19.021061 F F F # C
    5.150000   10.349594   20.483934 F F F # C
    5.150000   11.616464   21.215439 F F F # C
    5.150000   11.616464  110.451736 F F F # C
    5.150000   10.349594  111.183098 F F F # C
    5.150000   10.349594  112.645973 F F F # C
    5.150000   11.616464  113.377480 F F F # C
    5.150000   11.616464  114.840355 F F F # C
    5.150000   10.349594  115.571854 F F F # C
    5.150000   10.349594  117.034737 F F F # C
    5.150000   11.616464  117.766098 F F F # C
    5.150000   11.616464  119.228981 F F F # C
    5.150000   10.349594  119.960480 F F F # C
    5.150000   10.349594  121.423355 F F F # C
    5.150000   11.616464  122.154861 F F F # C
    5.150000   11.616464  123.617737 F F F # C
    5.150000   10.349594  124.349113 F F F # C
    5.150000   10.349594  125.811981 F F F # C
    5.150000   11.616464  126.543488 F F F # C
    5.150000   11.616464  128.006348 F F F # C
    5.150000   10.349594  128.737869 F F F # C
    5.150000   10.349594  130.200729 F F F # C
    5.150000   11.616464  130.932114 F F T # C
    5.150000   14.150274    0.734980 F F T # C
    5.150000   12.883332    1.466430 F F F # C
    5.150000   15.417142    1.466430 F F F # C
    5.150000   12.883332    2.929318 F F F # C
    5.150000   15.417142    2.929318 F F F # C
    5.150000   16.684082    0.734980 F F T # C
    5.150000   19.217894    0.734980 F F T # C
    5.150000   17.950953    1.466430 F F F # C
    5.150000   17.950953    2.929318 F F F # C
    5.150000   21.751633    0.734980 F F T # C
    5.150000   20.484764    1.466430 F F F # C
    5.150000   23.018572    1.466430 F F F # C
    5.150000   20.484764    2.929318 F F F # C
    5.150000   23.018572    2.929318 F F F # C
    5.150000   14.150274    3.660755 F F F # C
    5.150000   14.150274    5.123644 F F F # C
    5.150000   12.883332    5.855094 F F F # C
    5.150000   15.417142    5.855094 F F F # C
    5.150000   16.684082    3.660755 F F F # C
    5.150000   19.217894    3.660755 F F F # C
    5.150000   16.684082    5.123644 F F F # C
    5.150000   19.217894    5.123644 F F F # C
    5.150000   17.950953    5.855094 F F F # C
    5.150000   21.751633    3.660755 F F F # C
    5.150000   21.751633    5.123644 F F F # C
    5.150000   20.484764    5.855094 F F F # C
    5.150000   23.018572    5.855094 F F F # C
    5.150000   12.883332    7.317982 F F F # C
    5.150000   15.417142    7.317982 F F F # C
    5.150000   14.150274    8.049433 F F F # C
    5.150000   14.150274    9.512321 F F F # C
    5.150000   12.883332   10.243758 F F F # C
    5.150000   15.417142   10.243758 F F F # C
    5.150000   17.950953    7.317982 F F F # C
    5.150000   16.684082    8.049433 F F F # C
    5.150000   19.217894    8.049433 F F F # C
    5.150000   16.684082    9.512321 F F F # C
    5.150000   19.217894    9.512321 F F F # C
    5.150000   17.950953   10.243758 F F F # C
    5.150000   20.484764    7.317982 F F F # C
    5.150000   23.018572    7.317982 F F F # C
    5.150000   21.751633    8.049433 F F F # C
    5.150000   21.751633    9.512321 F F F # C
    5.150000   20.484764   10.243758 F F F # C
    5.150000   23.018572   10.243758 F F F # C
    5.150000   12.883332   11.706646 F F F # C
    5.150000   15.417142   11.706646 F F F # C
    5.150000   14.150274   12.438096 F F F # C
    5.150000   14.150274   13.900932 F F F # C
    5.150000   17.950953   11.706646 F F F # C
    5.150000   16.684082   12.438096 F F F # C
    5.150000   19.217894   12.438096 F F F # C
    5.150000   16.684082   13.900932 F F F # C
    5.150000   19.217894   13.900932 F F F # C
    5.150000   20.484764   11.706646 F F F # C
    5.150000   23.018572   11.706646 F F F # C
    5.150000   21.751633   12.438096 F F F # C
    5.150000   21.751633   13.900932 F F F # C
    5.150000   12.883332   14.632436 F F F # C
    5.150000   15.417142   14.632436 F F F # C
    5.150000   12.883332   16.095310 F F F # C
    5.150000   15.417142   16.095310 F F F # C
    5.150000   14.150274   16.826813 F F F # C
    5.150000   17.950953   14.632436 F F F # C
    5.150000   17.950953   16.095310 F F F # C
    5.150000   16.684082   16.826813 F F F # C
    5.150000   19.217894   16.826813 F F F # C
    5.150000   20.484764   14.632436 F F F # C
    5.150000   23.018572   14.632436 F F F # C
    5.150000   20.484764   16.095310 F F F # C
    5.150000   23.018572   16.095310 F F F # C
    5.150000   21.751633   16.826813 F F F # C
    5.150000   14.150274   18.289688 F F F # C
    5.150000   12.883332   19.021061 F F F # C
    5.150000   15.417142   19.021061 F F F # C
    5.150000   12.883332   20.483934 F F F # C
    5.150000   15.417142   20.483934 F F F # C
    5.150000   14.150274   21.215439 F F F # C
    5.150000   16.684082   18.289688 F F F # C
    5.150000   19.217894   18.289688 F F F # C
    5.150000   17.950953   19.021061 F F F # C
    5.150000   17.950953   20.483934 F F F # C
    5.150000   16.684082   21.215439 F F F # C
    5.150000   19.217894   21.215439 F F F # C
    5.150000   21.751633   18.289688 F F F # C
    5.150000   20.484764   19.021061 F F F # C
    5.150000   23.018572   19.021061 F F F # C
    5.150000   20.484764   20.483934 F F F # C
    5.150000   23.018572   20.483934 F F F # C
    5.150000   21.751633   21.215439 F F F # C
    5.150000   14.150274  110.451736 F F F # C
    5.150000   12.883332  111.183098 F F F # C
    5.150000   15.417142  111.183098 F F F # C
    5.150000   12.883332  112.645973 F F F # C
    5.150000   15.417142  112.645973 F F F # C
    5.150000   16.684082  110.451736 F F F # C
    5.150000   19.217894  110.451736 F F F # C
    5.150000   17.950953  111.183098 F F F # C
    5.150000   17.950953  112.645973 F F F # C
    5.150000   21.751633  110.451736 F F F # C
    5.150000   20.484764  111.183098 F F F # C
    5.150000   23.018572  111.183098 F F F # C
    5.150000   20.484764  112.645973 F F F # C
    5.150000   23.018572  112.645973 F F F # C
    5.150000   14.150274  113.377480 F F F # C
    5.150000   14.150274  114.840355 F F F # C
    5.150000   12.883332  115.571854 F F F # C
    5.150000   15.417142  115.571854 F F F # C
    5.150000   16.684082  113.377480 F F F # C
    5.150000   19.217894  113.377480 F F F # C
    5.150000   16.684082  114.840355 F F F # C
    5.150000   19.217894  114.840355 F F F # C
    5.150000   17.950953  115.571854 F F F # C
    5.150000   21.751633  113.377480 F F F # C
    5.150000   21.751633  114.840355 F F F # C
    5.150000   20.484764  115.571854 F F F # C
    5.150000   23.018572  115.571854 F F F # C
    5.150000   12.883332  117.034737 F F F # C
    5.150000   15.417142  117.034737 F F F # C
    5.150000   14.150274  117.766098 F F F # C
    5.150000   14.150274  119.228981 F F F # C
    5.150000   12.883332  119.960480 F F F # C
    5.150000   15.417142  119.960480 F F F # C
    5.150000   17.950953  117.034737 F F F # C
    5.150000   16.684082  117.766098 F F F # C
    5.150000   19.217894  117.766098 F F F # C
    5.150000   16.684082  119.228981 F F F # C
    5.150000   19.217894  119.228981 F F F # C
    5.150000   17.950953  119.960480 F F F # C
    5.150000   20.484764  117.034737 F F F # C
    5.150000   23.018572  117.034737 F F F # C
    5.150000   21.751633  117.766098 F F F # C
    5.150000   21.751633  119.228981 F F F # C
    5.150000   20.484764  119.960480 F F F # C
    5.150000   23.018572  119.960480 F F F # C
    5.150000   12.883332  121.423355 F F F # C
    5.150000   15.417142  121.423355 F F F # C
    5.150000   14.150274  122.154861 F F F # C
    5.150000   14.150274  123.617737 F F F # C
    5.150000   17.950953  121.423355 F F F # C
    5.150000   16.684082  122.154861 F F F # C
    5.150000   19.217894  122.154861 F F F # C
    5.150000   16.684082  123.617737 F F F # C
    5.150000   19.217894  123.617737 F F F # C
    5.150000   20.484764  121.423355 F F F # C
    5.150000   23.018572  121.423355 F F F # C
    5.150000   21.751633  122.154861 F F F # C
    5.150000   21.751633  123.617737 F F F # C
    5.150000   12.883332  124.349113 F F F # C
    5.150000   15.417142  124.349113 F F F # C
    5.150000   12.883332  125.811981 F F F # C
    5.150000   15.417142  125.811981 F F F # C
    5.150000   14.150274  126.543488 F F F # C
    5.150000   17.950953  124.349113 F F F # C
    5.150000   17.950953  125.811981 F F F # C
    5.150000   16.684082  126.543488 F F F # C
    5.150000   19.217894  126.543488 F F F # C
    5.150000   20.484764  124.349113 F F F # C
    5.150000   23.018572  124.349113 F F F # C
    5.150000   20.484764  125.811981 F F F # C
    5.150000   23.018572  125.811981 F F F # C
    5.150000   21.751633  126.543488 F F F # C
    5.150000   14.150274  128.006348 F F F # C
    5.150000   12.883332  128.737869 F F F # C
    5.150000   15.417142  128.737869 F F F # C
    5.150000   12.883332  130.200729 F F F # C
    5.150000   15.417142  130.200729 F F F # C
    5.150000   14.150274  130.932114 F F T # C
    5.150000   16.684082  128.006348 F F F # C
    5.150000   19.217894  128.006348 F F F # C
    5.150000   17.950953  128.737869 F F F # C
    5.150000   17.950953  130.200729 F F F # C
    5.150000   16.684082  130.932114 F F T # C
    5.150000   19.217894  130.932114 F F T # C
    5.150000   21.751633  128.006348 F F F # C
    5.150000   20.484764  128.737869 F F F # C
    5.150000   23.018572  128.737869 F F F # C
    5.150000   20.484764  130.200729 F F F # C
    5.150000   23.018572  130.200729 F F F # C
    5.150000   21.751633  130.932114 F F T # C
    5.150000   24.285442    0.734980 F F T # C
    5.150000   26.819254    0.734980 F F T # C
    5.150000   25.552383    1.466430 F F F # C
    5.150000   25.552383    2.929318 F F F # C
    5.150000   29.353062    0.734980 F F T # C
    5.150000   31.886875    0.734980 F F T # C
    5.150000   28.086123    1.466430 F F F # C
    5.150000   30.619932    1.466430 F F F # C
    5.150000   28.086123    2.929318 F F F # C
    5.150000   30.619932    2.929318 F F F # C
    5.150000   34.420685    0.734980 F F T # C
    5.150000   33.153740    1.466430 F F F # C
    5.150000   35.687553    1.466430 F F F # C
    5.150000   33.153740    2.929318 F F F # C
    5.150000   35.687553    2.929318 F F F # C
    5.150000   24.285442    3.660755 F F F # C
    5.150000   26.819254    3.660755 F F F # C
    5.150000   24.285442    5.123644 F F F # C
    5.150000   26.819254    5.123644 F F F # C
    5.150000   25.552383    5.855094 F F F # C
    5.150000   29.353062    3.660755 F F F # C
    5.150000   31.886875    3.660755 F F F # C
    5.150000   29.353062    5.123644 F F F # C
    5.150000   31.886875    5.123644 F F F # C
    5.150000   28.086123    5.855094 F F F # C
    5.150000   30.619932    5.855094 F F F # C
    5.150000   34.420685    3.660755 F F F # C
    5.150000   34.420685    5.123644 F F F # C
    5.150000   33.153740    5.855094 F F F # C
    5.150000   35.687553    5.855094 F F F # C
    5.150000   25.552383    7.317982 F F F # C
    5.150000   24.285442    8.049433 F F F # C
    5.150000   26.819254    8.049433 F F F # C
    5.150000   24.285442    9.512321 F F F # C
    5.150000   26.819254    9.512321 F F F # C
    5.150000   25.552383   10.243758 F F F # C
    5.150000   28.086123    7.317982 F F F # C
    5.150000   30.619932    7.317982 F F F # C
    5.150000   29.353062    8.049433 F F F # C
    5.150000   31.886875    8.049433 F F F # C
    5.150000   29.353062    9.512321 F F F # C
    5.150000   31.886875    9.512321 F F F # C
    5.150000   28.086123   10.243758 F F F # C
    5.150000   30.619932   10.243758 F F F # C
    5.150000   33.153740    7.317982 F F F # C
    5.150000   35.687553    7.317982 F F F # C
    5.150000   34.420685    8.049433 F F F # C
    5.150000   34.420685    9.512321 F F F # C
    5.150000   33.153740   10.243758 F F F # C
    5.150000   35.687553   10.243758 F F F # C
    5.150000   25.552383   11.706646 F F F # C
    5.150000   24.285442   12.438096 F F F # C
    5.150000   26.819254   12.438096 F F F # C
    5.150000   24.285442   13.900932 F F F # C
    5.150000   26.819254   13.900932 F F F # C
    5.150000   28.086123   11.706646 F F F # C
    5.150000   30.619932   11.706646 F F F # C
    5.150000   29.353062   12.438096 F F F # C
    5.150000   31.886875   12.438096 F F F # C
    5.150000   29.353062   13.900932 F F F # C
    5.150000   31.886875   13.900932 F F F # C
    5.150000   33.153740   11.706646 F F F # C
    5.150000   35.687553   11.706646 F F F # C
    5.150000   34.420685   12.438096 F F F # C
    5.150000   34.420685   13.900932 F F F # C
    5.150000   25.552383   14.632436 F F F # C
    5.150000   25.552383   16.095310 F F F # C
    5.150000   24.285442   16.826813 F F F # C
    5.150000   26.819254   16.826813 F F F # C
    5.150000   28.086123   14.632436 F F F # C
    5.150000   30.619932   14.632436 F F F # C
    5.150000   28.086123   16.095310 F F F # C
    5.150000   30.619932   16.095310 F F F # C
    5.150000   29.353062   16.826813 F F F # C
    5.150000   31.886875   16.826813 F F F # C
    5.150000   33.153740   14.632436 F F F # C
    5.150000   35.687553   14.632436 F F F # C
    5.150000   33.153740   16.095310 F F F # C
    5.150000   35.687553   16.095310 F F F # C
    5.150000   34.420685   16.826813 F F F # C
    5.150000   24.285442   18.289688 F F F # C
    5.150000   26.819254   18.289688 F F F # C
    5.150000   25.552383   19.021061 F F F # C
    5.150000   25.552383   20.483934 F F F # C
    5.150000   24.285442   21.215439 F F F # C
    5.150000   26.819254   21.215439 F F F # C
    5.150000   29.353062   18.289688 F F F # C
    5.150000   31.886875   18.289688 F F F # C
    5.150000   28.086123   19.021061 F F F # C
    5.150000   30.619932   19.021061 F F F # C
    5.150000   28.086123   20.483934 F F F # C
    5.150000   30.619932   20.483934 F F F # C
    5.150000   29.353062   21.215439 F F F # C
    5.150000   31.886875   21.215439 F F F # C
    5.150000   34.420685   18.289688 F F F # C
    5.150000   33.153740   19.021061 F F F # C
    5.150000   35.687553   19.021061 F F F # C
    5.150000   33.153740   20.483934 F F F # C
    5.150000   35.687553   20.483934 F F F # C
    5.150000   34.420685   21.215439 F F F # C
    5.150000   24.285442  110.451736 F F F # C
    5.150000   26.819254  110.451736 F F F # C
    5.150000   25.552383  111.183098 F F F # C
    5.150000   25.552383  112.645973 F F F # C
    5.150000   29.353062  110.451736 F F F # C
    5.150000   31.886875  110.451736 F F F # C
    5.150000   28.086123  111.183098 F F F # C
    5.150000   30.619932  111.183098 F F F # C
    5.150000   28.086123  112.645973 F F F # C
    5.150000   30.619932  112.645973 F F F # C
    5.150000   34.420685  110.451736 F F F # C
    5.150000   33.153740  111.183098 F F F # C
    5.150000   35.687553  111.183098 F F F # C
    5.150000   33.153740  112.645973 F F F # C
    5.150000   35.687553  112.645973 F F F # C
    5.150000   24.285442  113.377480 F F F # C
    5.150000   26.819254  113.377480 F F F # C
    5.150000   24.285442  114.840355 F F F # C
    5.150000   26.819254  114.840355 F F F # C
    5.150000   25.552383  115.571854 F F F # C
    5.150000   29.353062  113.377480 F F F # C
    5.150000   31.886875  113.377480 F F F # C
    5.150000   29.353062  114.840355 F F F # C
    5.150000   31.886875  114.840355 F F F # C
    5.150000   28.086123  115.571854 F F F # C
    5.150000   30.619932  115.571854 F F F # C
    5.150000   34.420685  113.377480 F F F # C
    5.150000   34.420685  114.840355 F F F # C
    5.150000   33.153740  115.571854 F F F # C
    5.150000   35.687553  115.571854 F F F # C
    5.150000   25.552383  117.034737 F F F # C
    5.150000   24.285442  117.766098 F F F # C
    5.150000   26.819254  117.766098 F F F # C
    5.150000   24.285442  119.228981 F F F # C
    5.150000   26.819254  119.228981 F F F # C
    5.150000   25.552383  119.960480 F F F # C
    5.150000   28.086123  117.034737 F F F # C
    5.150000   30.619932  117.034737 F F F # C
    5.150000   29.353062  117.766098 F F F # C
    5.150000   31.886875  117.766098 F F F # C
    5.150000   29.353062  119.228981 F F F # C
    5.150000   31.886875  119.228981 F F F # C
    5.150000   28.086123  119.960480 F F F # C
    5.150000   30.619932  119.960480 F F F # C
    5.150000   33.153740  117.034737 F F F # C
    5.150000   35.687553  117.034737 F F F # C
    5.150000   34.420685  117.766098 F F F # C
    5.150000   34.420685  119.228981 F F F # C
    5.150000   33.153740  119.960480 F F F # C
    5.150000   35.687553  119.960480 F F F # C
    5.150000   25.552383  121.423355 F F F # C
    5.150000   24.285442  122.154861 F F F # C
    5.150000   26.819254  122.154861 F F F # C
    5.150000   24.285442  123.617737 F F F # C
    5.150000   26.819254  123.617737 F F F # C
    5.150000   28.086123  121.423355 F F F # C
    5.150000   30.619932  121.423355 F F F # C
    5.150000   29.353062  122.154861 F F F # C
    5.150000   31.886875  122.154861 F F F # C
    5.150000   29.353062  123.617737 F F F # C
    5.150000   31.886875  123.617737 F F F # C
    5.150000   33.153740  121.423355 F F F # C
    5.150000   35.687553  121.423355 F F F # C
    5.150000   34.420685  122.154861 F F F # C
    5.150000   34.420685  123.617737 F F F # C
    5.150000   25.552383  124.349113 F F F # C
    5.150000   25.552383  125.811981 F F F # C
    5.150000   24.285442  126.543488 F F F # C
    5.150000   26.819254  126.543488 F F F # C
    5.150000   28.086123  124.349113 F F F # C
    5.150000   30.619932  124.349113 F F F # C
    5.150000   28.086123  125.811981 F F F # C
    5.150000   30.619932  125.811981 F F F # C
    5.150000   29.353062  126.543488 F F F # C
    5.150000   31.886875  126.543488 F F F # C
    5.150000   33.153740  124.349113 F F F # C
    5.150000   35.687553  124.349113 F F F # C
    5.150000   33.153740  125.811981 F F F # C
    5.150000   35.687553  125.811981 F F F # C
    5.150000   34.420685  126.543488 F F F # C
    5.150000   24.285442  128.006348 F F F # C
    5.150000   26.819254  128.006348 F F F # C
    5.150000   25.552383  128.737869 F F F # C
    5.150000   25.552383  130.200729 F F F # C
    5.150000   24.285442  130.932114 F F T # C
    5.150000   26.819254  130.932114 F F T # C
    5.150000   29.353062  128.006348 F F F # C
    5.150000   31.886875  128.006348 F F F # C
    5.150000   28.086123  128.737869 F F F # C
    5.150000   30.619932  128.737869 F F F # C
    5.150000   28.086123  130.200729 F F F # C
    5.150000   30.619932  130.200729 F F F # C
    5.150000   29.353062  130.932114 F F T # C
    5.150000   31.886875  130.932114 F F T # C
    5.150000   34.420685  128.006348 F F F # C
    5.150000   33.153740  128.737869 F F F # C
    5.150000   35.687553  128.737869 F F F # C
    5.150000   33.153740  130.200729 F F F # C
    5.150000   35.687553  130.200729 F F F # C
    5.150000   34.420685  130.932114 F F T # C
    5.150000   36.954418    0.734980 F F T # C
    5.150000   39.488232    0.734980 F F T # C
    5.150000   38.221363    1.466430 F F F # C
    5.150000   38.221363    2.929318 F F F # C
    5.150000   42.022041    0.734980 F F T # C
    5.150000   40.755173    1.466430 F F F # C
    5.150000   43.288982    1.466430 F F F # C
    5.150000   40.755173    2.929318 F F F # C
    5.150000   43.288982    2.929318 F F F # C
    5.150000   44.555855    0.734980 F F T # C
    5.150000   47.089664    0.734980 F F T # C
    5.150000   45.822720    1.466430 F F F # C
    5.150000   45.822720    2.929318 F F F # C
    5.150000   36.954418    3.660755 F F F # C
    5.150000   39.488232    3.660755 F F F # C
    5.150000   36.954418    5.123644 F F F # C
    5.150000   39.488232    5.123644 F F F # C
    5.150000   38.221363    5.855094 F F F # C
    5.150000   42.022041    3.660755 F F F # C
    5.150000   42.022041    5.123644 F F F # C
    5.150000   40.755173    5.855094 F F F # C
    5.150000   43.288982    5.855094 F F F # C
    5.150000   44.555855    3.660755 F F F # C
    5.150000   47.089664    3.660755 F F F # C
    5.150000   44.555855    5.123644 F F F # C
    5.150000   47.089664    5.123644 F F F # C
    5.150000   45.822720    5.855094 F F F # C
    5.150000   38.221363    7.317982 F F F # C
    5.150000   36.954418    8.049433 F F F # C
    5.150000   39.488232    8.049433 F F F # C
    5.150000   36.954418    9.512321 F F F # C
    5.150000   39.488232    9.512321 F F F # C
    5.150000   38.221363   10.243758 F F F # C
    5.150000   40.755173    7.317982 F F F # C
    5.150000   43.288982    7.317982 F F F # C
    5.150000   42.022041    8.049433 F F F # C
    5.150000   42.022041    9.512321 F F F # C
    5.150000   40.755173   10.243758 F F F # C
    5.150000   43.288982   10.243758 F F F # C
    5.150000   45.822720    7.317982 F F F # C
    5.150000   44.555855    8.049433 F F F # C
    5.150000   47.089664    8.049433 F F F # C
    5.150000   44.555855    9.512321 F F F # C
    5.150000   47.089664    9.512321 F F F # C
    5.150000   45.822720   10.243758 F F F # C
    5.150000   38.221363   11.706646 F F F # C
    5.150000   36.954418   12.438096 F F F # C
    5.150000   39.488232   12.438096 F F F # C
    5.150000   36.954418   13.900932 F F F # C
    5.150000   39.488232   13.900932 F F F # C
    5.150000   40.755173   11.706646 F F F # C
    5.150000   43.288982   11.706646 F F F # C
    5.150000   42.022041   12.438096 F F F # C
    5.150000   42.022041   13.900932 F F F # C
    5.150000   45.822720   11.706646 F F F # C
    5.150000   44.555855   12.438096 F F F # C
    5.150000   47.089664   12.438096 F F F # C
    5.150000   44.555855   13.900932 F F F # C
    5.150000   47.089664   13.900932 F F F # C
    5.150000   38.221363   14.632436 F F F # C
    5.150000   38.221363   16.095310 F F F # C
    5.150000   36.954418   16.826813 F F F # C
    5.150000   39.488232   16.826813 F F F # C
    5.150000   40.755173   14.632436 F F F # C
    5.150000   43.288982   14.632436 F F F # C
    5.150000   40.755173   16.095310 F F F # C
    5.150000   43.288982   16.095310 F F F # C
    5.150000   42.022041   16.826813 F F F # C
    5.150000   45.822720   14.632436 F F F # C
    5.150000   45.822720   16.095310 F F F # C
    5.150000   44.555855   16.826813 F F F # C
    5.150000   47.089664   16.826813 F F F # C
    5.150000   36.954418   18.289688 F F F # C
    5.150000   39.488232   18.289688 F F F # C
    5.150000   38.221363   19.021061 F F F # C
    5.150000   38.221363   20.483934 F F F # C
    5.150000   36.954418   21.215439 F F F # C
    5.150000   39.488232   21.215439 F F F # C
    5.150000   42.022041   18.289688 F F F # C
    5.150000   40.755173   19.021061 F F F # C
    5.150000   43.288982   19.021061 F F F # C
    5.150000   40.755173   20.483934 F F F # C
    5.150000   43.288982   20.483934 F F F # C
    5.150000   42.022041   21.215439 F F F # C
    5.150000   44.555855   18.289688 F F F # C
    5.150000   47.089664   18.289688 F F F # C
    5.150000   45.822720   19.021061 F F F # C
    5.150000   45.822720   20.483934 F F F # C
    5.150000   44.555855   21.215439 F F F # C
    5.150000   47.089664   21.215439 F F F # C
    5.150000   36.954418  110.451736 F F F # C
    5.150000   39.488232  110.451736 F F F # C
    5.150000   38.221363  111.183098 F F F # C
    5.150000   38.221363  112.645973 F F F # C
    5.150000   42.022041  110.451736 F F F # C
    5.150000   40.755173  111.183098 F F F # C
    5.150000   43.288982  111.183098 F F F # C
    5.150000   40.755173  112.645973 F F F # C
    5.150000   43.288982  112.645973 F F F # C
    5.150000   44.555855  110.451736 F F F # C
    5.150000   47.089664  110.451736 F F F # C
    5.150000   45.822720  111.183098 F F F # C
    5.150000   45.822720  112.645973 F F F # C
    5.150000   36.954418  113.377480 F F F # C
    5.150000   39.488232  113.377480 F F F # C
    5.150000   36.954418  114.840355 F F F # C
    5.150000   39.488232  114.840355 F F F # C
    5.150000   38.221363  115.571854 F F F # C
    5.150000   42.022041  113.377480 F F F # C
    5.150000   42.022041  114.840355 F F F # C
    5.150000   40.755173  115.571854 F F F # C
    5.150000   43.288982  115.571854 F F F # C
    5.150000   44.555855  113.377480 F F F # C
    5.150000   47.089664  113.377480 F F F # C
    5.150000   44.555855  114.840355 F F F # C
    5.150000   47.089664  114.840355 F F F # C
    5.150000   45.822720  115.571854 F F F # C
    5.150000   38.221363  117.034737 F F F # C
    5.150000   36.954418  117.766098 F F F # C
    5.150000   39.488232  117.766098 F F F # C
    5.150000   36.954418  119.228981 F F F # C
    5.150000   39.488232  119.228981 F F F # C
    5.150000   38.221363  119.960480 F F F # C
    5.150000   40.755173  117.034737 F F F # C
    5.150000   43.288982  117.034737 F F F # C
    5.150000   42.022041  117.766098 F F F # C
    5.150000   42.022041  119.228981 F F F # C
    5.150000   40.755173  119.960480 F F F # C
    5.150000   43.288982  119.960480 F F F # C
    5.150000   45.822720  117.034737 F F F # C
    5.150000   44.555855  117.766098 F F F # C
    5.150000   47.089664  117.766098 F F F # C
    5.150000   44.555855  119.228981 F F F # C
    5.150000   47.089664  119.228981 F F F # C
    5.150000   45.822720  119.960480 F F F # C
    5.150000   38.221363  121.423355 F F F # C
    5.150000   36.954418  122.154861 F F F # C
    5.150000   39.488232  122.154861 F F F # C
    5.150000   36.954418  123.617737 F F F # C
    5.150000   39.488232  123.617737 F F F # C
    5.150000   40.755173  121.423355 F F F # C
    5.150000   43.288982  121.423355 F F F # C
    5.150000   42.022041  122.154861 F F F # C
    5.150000   42.022041  123.617737 F F F # C
    5.150000   45.822720  121.423355 F F F # C
    5.150000   44.555855  122.154861 F F F # C
    5.150000   47.089664  122.154861 F F F # C
    5.150000   44.555855  123.617737 F F F # C
    5.150000   47.089664  123.617737 F F F # C
    5.150000   38.221363  124.349113 F F F # C
    5.150000   38.221363  125.811981 F F F # C
    5.150000   36.954418  126.543488 F F F # C
    5.150000   39.488232  126.543488 F F F # C
    5.150000   40.755173  124.349113 F F F # C
    5.150000   43.288982  124.349113 F F F # C
    5.150000   40.755173  125.811981 F F F # C
    5.150000   43.288982  125.811981 F F F # C
    5.150000   42.022041  126.543488 F F F # C
    5.150000   45.822720  124.349113 F F F # C
    5.150000   45.822720  125.811981 F F F # C
    5.150000   44.555855  126.543488 F F F # C
    5.150000   47.089664  126.543488 F F F # C
    5.150000   36.954418  128.006348 F F F # C
    5.150000   39.488232  128.006348 F F F # C
    5.150000   38.221363  128.737869 F F F # C
    5.150000   38.221363  130.200729 F F F # C
    5.150000   36.954418  130.932114 F F T # C
    5.150000   39.488232  130.932114 F F T # C
    5.150000   42.022041  128.006348 F F F # C
    5.150000   40.755173  128.737869 F F F # C
    5.150000   43.288982  128.737869 F F F # C
    5.150000   40.755173  130.200729 F F F # C
    5.150000   43.288982  130.200729 F F F # C
    5.150000   42.022041  130.932114 F F T # C
    5.150000   44.555855  128.006348 F F F # C
    5.150000   47.089664  128.006348 F F F # C
    5.150000   45.822720  128.737869 F F F # C
    5.150000   45.822720  130.200729 F F F # C
    5.150000   44.555855  130.932114 F F T # C
    5.150000   47.089664  130.932114 F F T # C
    5.150000   49.623474    0.734980 F F T # C
    5.150000   48.356529    1.466430 F F F # C
    5.150000   50.890343    1.466430 F F F # C
    5.150000   48.356529    2.929318 F F F # C
    5.150000   50.890343    2.929318 F F F # C
    5.150000   52.157211    0.734980 F F T # C
    5.150000   54.691025    0.734980 F F T # C
    5.150000   53.424152    1.466430 F F F # C
    5.150000   55.957962    1.466430 F F F # C
    5.150000   53.424152    2.929318 F F F # C
    5.150000   55.957962    2.929318 F F F # C
    5.150000   57.224831    0.734980 F F T # C
    5.150000   59.758640    0.734980 F F T # C
    5.150000   58.491772    1.466430 F F F # C
    5.150000   58.491772    2.929318 F F F # C
    5.150000   49.623474    3.660755 F F F # C
    5.150000   49.623474    5.123644 F F F # C
    5.150000   48.356529    5.855094 F F F # C
    5.150000   50.890343    5.855094 F F F # C
    5.150000   52.157211    3.660755 F F F # C
    5.150000   54.691025    3.660755 F F F # C
    5.150000   52.157211    5.123644 F F F # C
    5.150000   54.691025    5.123644 F F F # C
    5.150000   53.424152    5.855094 F F F # C
    5.150000   55.957962    5.855094 F F F # C
    5.150000   57.224831    3.660755 F F F # C
    5.150000   59.758640    3.660755 F F F # C
    5.150000   57.224831    5.123644 F F F # C
    5.150000   59.758640    5.123644 F F F # C
    5.150000   58.491772    5.855094 F F F # C
    5.150000   48.356529    7.317982 F F F # C
    5.150000   50.890343    7.317982 F F F # C
    5.150000   49.623474    8.049433 F F F # C
    5.150000   49.623474    9.512321 F F F # C