 %block AtomicCoordinatesAndAtomicSpecies
    5.000000   11.389641    0.713606  1 Cwid
    5.000000   10.159640    1.423633  1 Cwid
    5.000000   12.619639    1.423633  1 Cwid
    5.000000   10.159640    2.844027  1 Cwid
    5.000000   12.619639    2.844027  1 Cwid
    5.000000   13.849640    0.713606  1 Cwid
    5.000000   16.309641    0.713606  1 Cwid
    5.000000   15.079640    1.423633  1 Cwid
    5.000000   15.079640    2.844027  1 Cwid
    5.000000   18.769640    0.713606  1 Cwid
    5.000000   17.539639    1.423633  1 Cwid
    5.000000   19.999640    1.423633  1 Cwid
    5.000000   17.539639    2.844027  1 Cwid
    5.000000   19.999640    2.844027  1 Cwid
    5.000000   11.389641    3.554224  1 Cwid
    5.000000   11.389641    4.974448  1 Cwid
    5.000000   10.159640    5.684646  1 Cwid
    5.000000   12.619639    5.684646  1 Cwid
    5.000000   13.849640    3.554224  1 Cwid
    5.000000   16.309641    3.554224  1 Cwid
    5.000000   13.849640    4.974448  1 Cwid
    5.000000   16.309641    4.974448  1 Cwid
    5.000000   15.079640    5.684646  1 Cwid
    5.000000   18.769640    3.554224  1 Cwid
    5.000000   18.769640    4.974448  1 Cwid
    5.000000   17.539639    5.684646  1 Cwid
    5.000000   19.999640    5.684646  1 Cwid
    5.000000   10.159640    7.104870  1 Cwid
    5.000000   12.619639    7.104870  1 Cwid
    5.000000   11.389641    7.814897  1 Cwid
    5.000000   11.389641    9.235291  1 Cwid
    5.000000   15.079640    7.104870  1 Cwid
    5.000000   13.849640    7.814897  1 Cwid
    5.000000   16.309641    7.814897  1 Cwid
    5.000000   13.849640    9.235291  1 Cwid
    5.000000   16.309641    9.235291  1 Cwid
    5.000000   17.539639    7.104870  1 Cwid
    5.000000   19.999640    7.104870  1 Cwid
    5.000000   18.769640    7.814897  1 Cwid
    5.000000   18.769640    9.235291  1 Cwid
    5.000000   10.159640    9.945317  1 Cwid
    5.000000   12.619639    9.945317  1 Cwid
    5.000000   10.159640   11.365713  1 Cwid
    5.000000   12.619639   11.365713  1 Cwid
    5.000000   11.389641   12.075910  1 Cwid
    5.000000   15.079640    9.945317  1 Cwid
    5.000000   15.079640   11.365713  1 Cwid
    5.000000   13.849640   12.075910  1 Cwid
    5.000000   16.309641   12.075910  1 Cwid
    5.000000   17.539639    9.945317  1 Cwid
    5.000000   19.999640    9.945317  1 Cwid
    5.000000   17.539639   11.365713  1 Cwid
    5.000000   19.999640   11.365713  1 Cwid
    5.000000   18.769640   12.075910  1 Cwid
    5.000000   11.389641   13.496133  1 Cwid
    5.000000   10.159640   14.206160  1 Cwid
    5.000000   12.619639   14.206160  1 Cwid
    5.000000   10.159640   15.626554  1 Cwid
    5.000000   12.619639   15.626554  1 Cwid
    5.000000   13.849640   13.496133  1 Cwid
    5.000000   16.309641   13.496133  1 Cwid
    5.000000   15.079640   14.206160  1 Cwid
    5.000000   15.079640   15.626554  1 Cwid
    5.000000   18.769640   13.496133  1 Cwid
    5.000000   17.539639   14.206160  1 Cwid
    5.000000   19.999640   14.206160  1 Cwid
    5.000000   17.539639   15.626554  1 Cwid
    5.000000   19.999640   15.626554  1 Cwid
    5.000000   11.389641   16.336752  1 Cwid
    5.000000   11.389641   17.756975  1 Cwid
    5.000000   10.159640   18.467003  1 Cwid
    5.000000   12.619639   18.467003  1 Cwid
    5.000000   13.849640   16.336752  1 Cwid
    5.000000   16.309641   16.336752  1 Cwid
    5.000000   13.849640   17.756975  1 Cwid
    5.000000   16.309641   17.756975  1 Cwid
    5.000000   15.079640   18.467003  1 Cwid
    5.000000   18.769640   16.336752  1 Cwid
    5.000000   18.769640   17.756975  1 Cwid
    5.000000   17.539639   18.467003  1 Cwid
    5.000000   19.999640   18.467003  1 Cwid
    5.000000   10.159640   19.887398  1 Cwid
    5.000000   12.619639   19.887398  1 Cwid
    5.000000   11.389641   20.597424  1 Cwid
    5.000000   11.389641   22.017818  1 Cwid
    5.000000   15.079640   19.887398  1 Cwid
    5.000000   13.849640   20.597424  1 Cwid
    5.000000   16.309641   20.597424  1 Cwid
    5.000000   13.849640   22.017818  1 Cwid
    5.000000   16.309641   22.017818  1 Cwid
    5.000000   17.539639   19.887398  1 Cwid
    5.000000   19.999640   19.887398  1 Cwid
    5.000000   18.769640   20.597424  1 Cwid
    5.000000   18.769640   22.017818  1 Cwid
    5.000000   10.159640   22.727844  1 Cwid
    5.000000   12.619639   22.727844  1 Cwid
    5.000000   10.159640   24.148241  1 Cwid
    5.000000   12.619639   24.148241  1 Cwid
    5.000000   11.389641   24.858267  1 Cwid
    5.000000   15.079640   22.727844  1 Cwid
    5.000000   15.079640   24.148241  1 Cwid
    5.000000   13.849640   24.858267  1 Cwid
    5.000000   16.309641   24.858267  1 Cwid
    5.000000   17.539639   22.727844  1 Cwid
    5.000000   19.999640   22.727844  1 Cwid
    5.000000   17.539639   24.148241  1 Cwid
    5.000000   19.999640   24.148241  1 Cwid
    5.000000   18.769640   24.858267  1 Cwid
    5.000000   11.389641   26.278660  1 Cwid
    5.000000   10.159640   26.988688  1 Cwid
    5.000000   12.619639   26.988688  1 Cwid
    5.000000   13.849640   26.278660  1 Cwid
    5.000000   16.309641   26.278660  1 Cwid
    5.000000   15.079640   26.988688  1 Cwid
    5.000000   18.769640   26.278660  1 Cwid
    5.000000   17.539639   26.988688  1 Cwid
    5.000000   19.999640   26.988688  1 Cwid
    5.000000   10.159640   28.409082  1 Cwid
    5.000000   12.619639   28.409082  1 Cwid
    5.000000   11.389641   29.119110  1 Cwid
    5.000000   11.389641   30.539503  1 Cwid
    5.000000   10.159640   31.249531  1 Cwid
    5.000000   12.619639   31.249531  1 Cwid
    5.000000   15.079640   28.409082  1 Cwid
    5.000000   13.849640   29.119110  1 Cwid
    5.000000   16.309641   29.119110  1 Cwid
    5.000000   13.849640   30.539503  1 Cwid
    5.000000   16.309641   30.539503  1 Cwid
    5.000000   15.079640   31.249531  1 Cwid
    5.000000   17.539639   28.409082  1 Cwid
    5.000000   19.999640   28.409082  1 Cwid
    5.000000   18.769640   29.119110  1 Cwid
    5.000000   18.769640   30.539503  1 Cwid
    5.000000   17.539639   31.249531  1 Cwid
    5.000000   19.999640   31.249531  1 Cwid
    5.000000   10.159640   32.669926  1 Cwid
    5.000000   12.619639   32.669926  1 Cwid
    5.000000   11.389641   33.379951  1 Cwid
    5.000000   15.079640   32.669926  1 Cwid
    5.000000   13.849640   33.379951  1 Cwid
    5.000000   16.309641   33.379951  1 Cwid
    5.000000   17.539639   32.669926  1 Cwid
    5.000000   19.999640   32.669926  1 Cwid
    5.000000   18.769640   33.379951  1 Cwid
    5.000000   11.389641   34.800346  1 Cwid
    5.000000   10.159640   35.510372  1 Cwid
    5.000000   12.619639   35.510372  1 Cwid
    5.000000   10.159640   36.930767  1 Cwid
    5.000000   12.619639   36.930767  1 Cwid
    5.000000   11.389641   37.640965  1 Cwid
    5.000000   13.849640   34.800346  1 Cwid
    5.000000   16.309641   34.800346  1 Cwid
    5.000000   15.079640   35.510372  1 Cwid
    5.000000   15.079640   36.930767  1 Cwid
    5.000000   13.849640   37.640965  1 Cwid
    5.000000   16.309641   37.640965  1 Cwid
    5.000000   18.769640   34.800346  1 Cwid
    5.000000   17.539639   35.510372  1 Cwid
    5.000000   19.999640   35.510372  1 Cwid
    5.000000   17.539639   36.930767  1 Cwid
    5.000000   19.999640   36.930767  1 Cwid
    5.000000   18.769640   37.640965  1 Cwid
    5.000000   11.389641   39.061188  1 Cwid
    5.000000   10.159640   39.771385  1 Cwid
    5.000000   12.619639   39.771385  1 Cwid
    5.000000   13.849640   39.061188  1 Cwid
    5.000000   16.309641   39.061188  1 Cwid
    5.000000   15.079640   39.771385  1 Cwid
    5.000000   18.769640   39.061188  1 Cwid
    5.000000   17.539639   39.771385  1 Cwid
    5.000000   19.999640   39.771385  1 Cwid
    5.000000   10.159640   41.191608  1 Cwid
    5.000000   12.619639   41.191608  1 Cwid
    5.000000   11.389641   41.901810  1 Cwid
    5.000000   15.079640   41.191608  1 Cwid
    5.000000   13.849640   41.901810  1 Cwid
    5.000000   16.309641   41.901810  1 Cwid
    5.000000   17.539639   41.191608  1 Cwid
    5.000000   19.999640   41.191608  1 Cwid
    5.000000   18.769640   41.901810  1 Cwid
    5.000000   11.389641  128.538879  1 Cwid
    5.000000   10.159640  129.249084  1 Cwid
    5.000000   12.619639  129.249084  1 Cwid
    5.000000   13.849640  128.538879  1 Cwid
    5.000000   16.309641  128.538879  1 Cwid
    5.000000   15.079640  129.249084  1 Cwid
    5.000000   18.769640  128.538879  1 Cwid
    5.000000   17.539639  129.249084  1 Cwid
    5.000000   19.999640  129.249084  1 Cwid
    5.000000   10.159640  130.669296  1 Cwid
    5.000000   12.619639  130.669296  1 Cwid
    5.000000   11.389641  131.379501  1 Cwid
    5.000000   15.079640  130.669296  1 Cwid
    5.000000   13.849640  131.379501  1 Cwid
    5.000000   16.309641  131.379501  1 Cwid
    5.000000   17.539639  130.669296  1 Cwid
    5.000000   19.999640  130.669296  1 Cwid
    5.000000   18.769640  131.379501  1 Cwid
    5.000000   11.389641  132.799728  1 Cwid
    5.000000   10.159640  133.509918  1 Cwid
    5.000000   12.619639  133.509918  1 Cwid
    5.000000   10.159640  134.930145  1 Cwid
    5.000000   12.619639  134.930145  1 Cwid
    5.000000   11.389641  135.640335  1 Cwid
    5.000000   13.849640  132.799728  1 Cwid
    5.000000   16.309641  132.799728  1 Cwid
    5.000000   15.079640  133.509918  1 Cwid
    5.000000   15.079640  134.930145  1 Cwid
    5.000000   13.849640  135.640335  1 Cwid
    5.000000   16.309641  135.640335  1 Cwid
    5.000000   18.769640  132.799728  1 Cwid
    5.000000   17.539639  133.509918  1 Cwid
    5.000000   19.999640  133.509918  1 Cwid
    5.000000   17.539639  134.930145  1 Cwid
    5.000000   19.999640  134.930145  1 Cwid
    5.000000   18.769640  135.640335  1 Cwid
    5.000000   11.389641  137.060562  1 Cwid
    5.000000   10.159640  137.770767  1 Cwid
    5.000000   12.619639  137.770767  1 Cwid
    5.000000   13.849640  137.060562  1 Cwid
    5.000000   16.309641  137.060562  1 Cwid
    5.000000   15.079640  137.770767  1 Cwid
    5.000000   18.769640  137.060562  1 Cwid
    5.000000   17.539639  137.770767  1 Cwid
    5.000000   19.999640  137.770767  1 Cwid
    5.000000   10.159640  139.190979  1 Cwid
    5.000000   12.619639  139.190979  1 Cwid
    5.000000   11.389641  139.901184  1 Cwid
    5.000000   11.389641  141.321411  1 Cwid
    5.000000   15.079640  139.190979  1 Cwid
    5.000000   13.849640  139.901184  1 Cwid
    5.000000   16.309641  139.901184  1 Cwid
    5.000000   13.849640  141.321411  1 Cwid
    5.000000   16.309641  141.321411  1 Cwid
    5.000000   17.539639  139.190979  1 Cwid
    5.000000   19.999640  139.190979  1 Cwid
    5.000000   18.769640  139.901184  1 Cwid
    5.000000   18.769640  141.321411  1 Cwid
    5.000000   10.159640  142.031601  1 Cwid
    5.000000   12.619639  142.031601  1 Cwid
    5.000000   10.159640  143.451828  1 Cwid
    5.000000   12.619639  143.451828  1 Cwid
    5.000000   11.389641  144.162018  1 Cwid
    5.000000   15.079640  142.031601  1 Cwid
    5.000000   15.079640  143.451828  1 Cwid
    5.000000   13.849640  144.162018  1 Cwid
    5.000000   16.309641  144.162018  1 Cwid
    5.000000   17.539639  142.031601  1 Cwid
    5.000000   19.999640  142.031601  1 Cwid
    5.000000   17.539639  143.451828  1 Cwid
    5.000000   19.999640  143.451828  1 Cwid
    5.000000   18.769640  144.162018  1 Cwid
    5.000000   11.389641  145.582260  1 Cwid
    5.000000   10.159640  146.292450  1 Cwid
    5.000000   12.619639  146.292450  1 Cwid
    5.000000   10.159640  147.712677  1 Cwid
    5.000000   12.619639  147.712677  1 Cwid
    5.000000   13.849640  145.582260  1 Cwid
    5.000000   16.309641  145.582260  1 Cwid
    5.000000   15.079640  146.292450  1 Cwid
    5.000000   15.079640  147.712677  1 Cwid
    5.000000   18.769640  145.582260  1 Cwid
    5.000000   17.539639  146.292450  1 Cwid
    5.000000   19.999640  146.292450  1 Cwid
    5.000000   17.539639  147.712677  1 Cwid
    5.000000   19.999640  147.712677  1 Cwid
    5.000000   11.389641  148.422867  1 Cwid
    5.000000   11.389641  149.843094  1 Cwid
    5.000000   10.159640  150.553299  1 Cwid
    5.000000   12.619639  150.553299  1 Cwid
    5.000000   13.849640  148.422867  1 Cwid
    5.000000   16.309641  148.422867  1 Cwid
    5.000000   13.849640  149.843094  1 Cwid
    5.000000   16.309641  149.843094  1 Cwid
    5.000000   15.079640  150.553299  1 Cwid
    5.000000   18.769640  148.422867  1 Cwid
    5.000000   18.769640  149.843094  1 Cwid
    5.000000   17.539639  150.553299  1 Cwid
    5.000000   19.999640  150.553299  1 Cwid
    5.000000   10.159640  151.973511  1 Cwid
    5.000000   12.619639  151.973511  1 Cwid
    5.000000   11.389641  152.683716  1 Cwid
    5.000000   11.389641  154.103943  1 Cwid
    5.000000   15.079640  151.973511  1 Cwid
    5.000000   13.849640  152.683716  1 Cwid
    5.000000   16.309641  152.683716  1 Cwid
    5.000000   13.849640  154.103943  1 Cwid
    5.000000   16.309641  154.103943  1 Cwid
    5.000000   17.539639  151.973511  1 Cwid
    5.000000   19.999640  151.973511  1 Cwid
    5.000000   18.769640  152.683716  1 Cwid
    5.000000   18.769640  154.103943  1 Cwid
    5.000000   10.159640  154.814133  1 Cwid
    5.000000   12.619639  154.814133  1 Cwid
    5.000000   10.159640  156.234360  1 Cwid
    5.000000   12.619639  156.234360  1 Cwid
    5.000000   11.389641  156.944550  1 Cwid
    5.000000   15.079640  154.814133  1 Cwid
    5.000000   15.079640  156.234360  1 Cwid
    5.000000   13.849640  156.944550  1 Cwid
    5.000000   16.309641  156.944550  1 Cwid
    5.000000   17.539639  154.814133  1 Cwid
    5.000000   19.999640  154.814133  1 Cwid
    5.000000   17.539639  156.234360  1 Cwid
    5.000000   19.999640  156.234360  1 Cwid
    5.000000   18.769640  156.944550  1 Cwid
    5.000000   11.389641  158.364777  1 Cwid
    5.000000   10.159640  159.074982  1 Cwid
    5.000000   12.619639  159.074982  1 Cwid
    5.000000   10.159640  160.495193  1 Cwid
    5.000000   12.619639  160.495193  1 Cwid
    5.000000   13.849640  158.364777  1 Cwid
    5.000000   16.309641  158.364777  1 Cwid
    5.000000   15.079640  159.074982  1 Cwid
    5.000000   15.079640  160.495193  1 Cwid
    5.000000   18.769640  158.364777  1 Cwid
    5.000000   17.539639  159.074982  1 Cwid
    5.000000   19.999640  159.074982  1 Cwid
    5.000000   17.539639  160.495193  1 Cwid
    5.000000   19.999640  160.495193  1 Cwid
    5.000000   11.389641  161.205399  1 Cwid
    5.000000   11.389641  162.625610  1 Cwid
    5.000000   10.159640  163.335815  1 Cwid
    5.000000   12.619639  163.335815  1 Cwid
    5.000000   13.849640  161.205399  1 Cwid
    5.000000   16.309641  161.205399  1 Cwid
    5.000000   13.849640  162.625610  1 Cwid
    5.000000   16.309641  162.625610  1 Cwid
    5.000000   15.079640  163.335815  1 Cwid
    5.000000   18.769640  161.205399  1 Cwid
    5.000000   18.769640  162.625610  1 Cwid
    5.000000   17.539639  163.335815  1 Cwid
    5.000000   19.999640  163.335815  1 Cwid
    5.000000   10.159640  164.756042  1 Cwid
    5.000000   12.619639  164.756042  1 Cwid
    5.000000   11.389641  165.466232  1 Cwid
    5.000000   11.389641  166.886459  1 Cwid
    5.000000   15.079640  164.756042  1 Cwid
    5.000000   13.849640  165.466232  1 Cwid
    5.000000   16.309641  165.466232  1 Cwid
    5.000000   13.849640  166.886459  1 Cwid
    5.000000   16.309641  166.886459  1 Cwid
    5.000000   17.539639  164.756042  1 Cwid
    5.000000   19.999640  164.756042  1 Cwid
    5.000000   18.769640  165.466232  1 Cwid
    5.000000   18.769640  166.886459  1 Cwid
    5.000000   10.159640  167.596649  1 Cwid
    5.000000   12.619639  167.596649  1 Cwid
    5.000000   10.159640  169.016891  1 Cwid
    5.000000   12.619639  169.016891  1 Cwid
    5.000000   11.389641  169.727081  1 Cwid
    5.000000   15.079640  167.596649  1 Cwid
    5.000000   15.079640  169.016891  1 Cwid
    5.000000   13.849640  169.727081  1 Cwid
    5.000000   16.309641  169.727081  1 Cwid
    5.000000   17.539639  167.596649  1 Cwid
    5.000000   19.999640  167.596649  1 Cwid
    5.000000   17.539639  169.016891  1 Cwid
    5.000000   19.999640  169.016891  1 Cwid
    5.000000   18.769640  169.727081  1 Cwid
    5.000000   21.229639    0.713606  1 Cwid
    5.000000   22.459641    1.423633  1 Cwid
    5.000000   22.459641    2.844027  1 Cwid
    5.000000   23.689640    0.713606  1 Cwid
    5.000000   26.149639    0.713606  1 Cwid
    5.000000   24.919641    1.423633  1 Cwid
    5.000000   24.919641    2.844027  1 Cwid
    5.000000   28.609640    0.713606  1 Cwid
    5.000000   27.379639    1.423633  1 Cwid
    5.000000   29.839640    1.423633  1 Cwid
    5.000000   27.379639    2.844027  1 Cwid
    5.000000   29.839640    2.844027  1 Cwid
    5.000000   21.229639    3.554224  1 Cwid
    5.000000   21.229639    4.974448  1 Cwid
    5.000000   22.459641    5.684646  1 Cwid
    5.000000   23.689640    3.554224  1 Cwid
    5.000000   26.149639    3.554224  1 Cwid
    5.000000   23.689640    4.974448  1 Cwid
    5.000000   26.149639    4.974448  1 Cwid
    5.000000   24.919641    5.684646  1 Cwid
    5.000000   28.609640    3.554224  1 Cwid
    5.000000   28.609640    4.974448  1 Cwid
    5.000000   27.379639    5.684646  1 Cwid
    5.000000   29.839640    5.684646  1 Cwid
    5.000000   22.459641    7.104870  1 Cwid
    5.000000   21.229639    7.814897  1 Cwid
    5.000000   21.229639    9.235291  1 Cwid
    5.000000   24.919641    7.104870  1 Cwid
    5.000000   23.689640    7.814897  1 Cwid
    5.000000   26.149639    7.814897  1 Cwid
    5.000000   23.689640    9.235291  1 Cwid
    5.000000   26.149639    9.235291  1 Cwid
    5.000000   27.379639    7.104870  1 Cwid
    5.000000   29.839640    7.104870  1 Cwid
    5.000000   28.609640    7.814897  1 Cwid
    5.000000   28.609640    9.235291  1 Cwid
    5.000000   22.459641    9.945317  1 Cwid
    5.000000   22.459641   11.365713  1 Cwid
    5.000000   21.229639   12.075910  1 Cwid
    5.000000   24.919641    9.945317  1 Cwid
    5.000000   24.919641   11.365713  1 Cwid
    5.000000   23.689640   12.075910  1 Cwid
    5.000000   26.149639   12.075910  1 Cwid
    5.000000   27.379639    9.945317  1 Cwid
    5.000000   29.839640    9.945317  1 Cwid
    5.000000   27.379639   11.365713  1 Cwid
    5.000000   29.839640   11.365713  1 Cwid
    5.000000   28.609640   12.075910  1 Cwid
    5.000000   21.229639   13.496133  1 Cwid
    5.000000   22.459641   14.206160  1 Cwid
    5.000000   22.459641   15.626554  1 Cwid
    5.000000   23.689640   13.496133  1 Cwid
    5.000000   26.149639   13.496133  1 Cwid
    5.000000   24.919641   14.206160  1 Cwid
    5.000000   24.919641   15.626554  1 Cwid
    5.000000   28.609640   13.496133  1 Cwid
    5.000000   27.379639   14.206160  1 Cwid
    5.000000   29.839640   14.206160  1 Cwid
    5.000000   27.379639   15.626554  1 Cwid
    5.000000   29.839640   15.626554  1 Cwid
    5.000000   21.229639   16.336752  1 Cwid
    5.000000   21.229639   17.756975  1 Cwid
    5.000000   22.459641   18.467003  1 Cwid
    5.000000   23.689640   16.336752  1 Cwid
    5.000000   26.149639   16.336752  1 Cwid
    5.000000   23.689640   17.756975  1 Cwid
    5.000000   26.149639   17.756975  1 Cwid
    5.000000   24.919641   18.467003  1 Cwid
    5.000000   28.609640   16.336752  1 Cwid
    5.000000   28.609640   17.756975  1 Cwid
    5.000000   27.379639   18.467003  1 Cwid
    5.000000   29.839640   18.467003  1 Cwid
    5.000000   22.459641   19.887398  1 Cwid
    5.000000   21.229639   20.597424  1 Cwid
    5.000000   21.229639   22.017818  1 Cwid
    5.000000   24.919641   19.887398  1 Cwid
    5.000000   23.689640   20.597424  1 Cwid
    5.000000   26.149639   20.597424  1 Cwid
    5.000000   23.689640   22.017818  1 Cwid
    5.000000   26.149639   22.017818  1 Cwid
    5.000000   27.379639   19.887398  1 Cwid
    5.000000   29.839640   19.887398  1 Cwid
    5.000000   28.609640   20.597424  1 Cwid
    5.000000   28.609640   22.017818  1 Cwid
    5.000000   22.459641   22.727844  1 Cwid
    5.000000   22.459641   24.148241  1 Cwid
    5.000000   21.229639   24.858267  1 Cwid
    5.000000   24.919641   22.727844  1 Cwid
    5.000000   24.919641   24.148241  1 Cwid
    5.000000   23.689640   24.858267  1 Cwid
    5.000000   26.149639   24.858267  1 Cwid
    5.000000   27.379639   22.727844  1 Cwid
    5.000000   29.839640   22.727844  1 Cwid
    5.000000   27.379639   24.148241  1 Cwid
    5.000000   29.839640   24.148241  1 Cwid
    5.000000   28.609640   24.858267  1 Cwid
    5.000000   21.229639   26.278660  1 Cwid
    5.000000   22.459641   26.988688  1 Cwid
    5.000000   23.689640   26.278660  1 Cwid
    5.000000   26.149639   26.278660  1 Cwid
    5.000000   24.919641   26.988688  1 Cwid
    5.000000   28.609640   26.278660  1 Cwid
    5.000000   27.379639   26.988688  1 Cwid
    5.000000   29.839640   26.988688  1 Cwid
    5.000000   22.459641   28.409082  1 Cwid
    5.000000   21.229639   29.119110  1 Cwid
    5.000000   21.229639   30.539503  1 Cwid
    5.000000   22.459641   31.249531  1 Cwid
    5.000000   24.919641   28.409082  1 Cwid
    5.000000   23.689640   29.119110  1 Cwid
    5.000000   26.149639   29.119110  1 Cwid
    5.000000   23.689640   30.539503  1 Cwid
    5.000000   26.149639   30.539503  1 Cwid
    5.000000   24.919641   31.249531  1 Cwid
    5.000000   27.379639   28.409082  1 Cwid
    5.000000   29.839640   28.409082  1 Cwid
    5.000000   28.609640   29.119110  1 Cwid
    5.000000   28.609640   30.539503  1 Cwid
    5.000000   27.379639   31.249531  1 Cwid
    5.000000   29.839640   31.249531  1 Cwid
    5.000000   22.459641   32.669926  1 Cwid
    5.000000   21.229639   33.379951  1 Cwid
    5.000000   24.919641   32.669926  1 Cwid
    5.000000   23.689640   33.379951  1 Cwid
    5.000000   26.149639   33.379951  1 Cwid
    5.000000   27.379639   32.669926  1 Cwid
    5.000000   29.839640   32.669926  1 Cwid
    5.000000   28.609640   33.379951  1 Cwid
    5.000000   21.229639   34.800346  1 Cwid
    5.000000   22.459641   35.510372  1 Cwid
    5.000000   22.459641   36.930767  1 Cwid
    5.000000   21.229639   37.640965  1 Cwid
    5.000000   23.689640   34.800346  1 Cwid
    5.000000   26.149639   34.800346  1 Cwid
    5.000000   24.919641   35.510372  1 Cwid
    5.000000   24.919641   36.930767  1 Cwid
    5.000000   23.689640   37.640965  1 Cwid
    5.000000   26.149639   37.640965  1 Cwid
    5.000000   28.609640   34.800346  1 Cwid
    5.000000   27.379639   35.510372  1 Cwid
    5.000000   29.839640   35.510372  1 Cwid
    5.000000   27.379639   36.930767  1 Cwid
    5.000000   29.839640   36.930767  1 Cwid
    5.000000   28.609640   37.640965  1 Cwid
    5.000000   21.229639   39.061188  1 Cwid
    5.000000   22.459641   39.771385  1 Cwid
    5.000000   23.689640   39.061188  1 Cwid
    5.000000   26.149639   39.061188  1 Cwid
    5.000000   24.919641   39.771385  1 Cwid
    5.000000   28.609640   39.061188  1 Cwid
    5.000000   27.379639   39.771385  1 Cwid
    5.000000   29.839640   39.771385  1 Cwid
    5.000000   22.459641   41.191608  1 Cwid
    5.000000   21.229639   41.901810  1 Cwid
    5.000000   24.919641   41.191608  1 Cwid
    5.000000   23.689640   41.901810  1 Cwid
    5.000000   26.149639   41.901810  1 Cwid
    5.000000   27.379639   41.191608  1 Cwid
    5.000000   29.839640   41.191608  1 Cwid
    5.000000   28.609640   41.901810  1 Cwid
    5.000000   21.229639  128.538879  1 Cwid
    5.000000   22.459641  129.249084  1 Cwid
    5.000000   23.689640  128.538879  1 Cwid
    5.000000   26.149639  128.538879  1 Cwid
    5.000000   24.919641  129.249084  1 Cwid
    5.000000   28.609640  128.538879  1 Cwid
    5.000000   27.379639  129.249084  1 Cwid
    5.000000   29.839640  129.249084  1 Cwid
    5.000000   22.459641  130.669296  1 Cwid
    5.000000   21.229639  131.379501  1 Cwid
    5.000000   24.919641  130.669296  1 Cwid
    5.000000   23.689640  131.379501  1 Cwid
    5.000000   26.149639  131.379501  1 Cwid
    5.000000   27.379639  130.669296  1 Cwid
    5.000000   29.839640  130.669296  1 Cwid
    5.000000   28.609640  131.379501  1 Cwid
    5.000000   21.229639  132.799728  1 Cwid
    5.000000   22.459641  133.509918  1 Cwid
    5.000000   22.459641  134.930145  1 Cwid
    5.000000   21.229639  135.640335  1 Cwid
    5.000000   23.689640  132.799728  1 Cwid
    5.000000   26.149639  132.799728  1 Cwid
    5.000000   24.919641  133.509918  1 Cwid
    5.000000   24.919641  134.930145  1 Cwid
    5.000000   23.689640  135.640335  1 Cwid
    5.000000   26.149639  135.640335  1 Cwid
    5.000000   28.609640  132.799728  1 Cwid
    5.000000   27.379639  133.509918  1 Cwid
    5.000000   29.839640  133.509918  1 Cwid
    5.000000   27.379639  134.930145  1 Cwid
    5.000000   29.839640  134.930145  1 Cwid
    5.000000   28.609640  135.640335  1 Cwid
    5.000000   21.229639  137.060562  1 Cwid
    5.000000   22.459641  137.770767  1 Cwid
    5.000000   23.689640  137.060562  1 Cwid
    5.000000   26.149639  137.060562  1 Cwid
    5.000000   24.919641  137.770767  1 Cwid
    5.000000   28.609640  137.060562  1 Cwid
    5.000000   27.379639  137.770767  1 Cwid
    5.000000   29.839640  137.770767  1 Cwid
    5.000000   22.459641  139.190979  1 Cwid
    5.000000   21.229639  139.901184  1 Cwid
    5.000000   21.229639  141.321411  1 Cwid
    5.000000   24.919641  139.190979  1 Cwid
    5.000000   23.689640  139.901184  1 Cwid
    5.000000   26.149639  139.901184  1 Cwid
    5.000000   23.689640  141.321411  1 Cwid
    5.000000   26.149639  141.321411  1 Cwid
    5.000000   27.379639  139.190979  1 Cwid
    5.000000   29.839640  139.190979  1 Cwid
    5.000000   28.609640  139.901184  1 Cwid
    5.000000   28.609640  141.321411  1 Cwid
    5.000000   22.459641  142.031601  1 Cwid
    5.000000   22.459641  143.451828  1 Cwid
    5.000000   21.229639  144.162018  1 Cwid
    5.000000   24.919641  142.031601  1 Cwid
    5.000000   24.919641  143.451828  1 Cwid
    5.000000   23.689640  144.162018  1 Cwid
    5.000000   26.149639  144.162018  1 Cwid
    5.000000   27.379639  142.031601  1 Cwid
    5.000000   29.839640  142.031601  1 Cwid
    5.000000   27.379639  143.451828  1 Cwid
    5.000000   29.839640  143.451828  1 Cwid
    5.000000   28.609640  144.162018  1 Cwid
    5.000000   21.229639  145.582260  1 Cwid
    5.000000   22.459641  146.292450  1 Cwid
    5.000000   22.459641  147.712677  1 Cwid
    5.000000   23.689640  145.582260  1 Cwid
    5.000000   26.149639  145.582260  1 Cwid
    5.000000   24.919641  146.292450  1 Cwid
    5.000000   24.919641  147.712677  1 Cwid
    5.000000   28.609640  145.582260  1 Cwid
    5.000000   27.379639  146.292450  1 Cwid
    5.000000   29.839640  146.292450  1 Cwid
    5.000000   27.379639  147.712677  1 Cwid
    5.000000   29.839640  147.712677  1 Cwid
    5.000000   21.229639  148.422867  1 Cwid
    5.000000   21.229639  149.843094  1 Cwid
    5.000000   22.459641  150.553299  1 Cwid
    5.000000   23.689640  148.422867  1 Cwid
    5.000000   26.149639  148.422867  1 Cwid
    5.000000   23.689640  149.843094  1 Cwid
    5.000000   26.149639  149.843094  1 Cwid
    5.000000   24.919641  150.553299  1 Cwid
    5.000000   28.609640  148.422867  1 Cwid
    5.000000   28.609640  149.843094  1 Cwid
    5.000000   27.379639  150.553299  1 Cwid
    5.000000   29.839640  150.553299  1 Cwid
    5.000000   22.459641  151.973511  1 Cwid
    5.000000   21.229639  152.683716  1 Cwid
    5.000000   21.229639  154.103943  1 Cwid
    5.000000   24.919641  151.973511  1 Cwid
    5.000000   23.689640  152.683716  1 Cwid
    5.000000   26.149639  152.683716  1 Cwid
    5.000000   23.689640  154.103943  1 Cwid
    5.000000   26.149639  154.103943  1 Cwid
    5.000000   27.379639  151.973511  1 Cwid
    5.000000   29.839640  151.973511  1 Cwid
    5.000000   28.609640  152.683716  1 Cwid
    5.000000   28.609640  154.103943  1 Cwid
    5.000000   22.459641  154.814133  1 Cwid
    5.000000   22.459641  156.234360  1 Cwid
    5.000000   21.229639  156.944550  1 Cwid
    5.000000   24.919641  154.814133  1 Cwid
    5.000000   24.919641  156.234360  1 Cwid
    5.000000   23.689640  156.944550  1 Cwid
    5.000000   26.149639  156.944550  1 Cwid
    5.000000   27.379639  154.814133  1 Cwid
    5.000000   29.839640  154.814133  1 Cwid
    5.000000   27.379639  156.234360  1 Cwid
    5.000000   29.839640  156.234360  1 Cwid
    5.000000   28.609640  156.944550  1 Cwid
    5.000000   21.229639  158.364777  1 Cwid
    5.000000   22.459641  159.074982  1 Cwid
    5.000000   22.459641  160.495193  1 Cwid
    5.000000   23.689640  158.364777  1 Cwid
    5.000000   26.149639  158.364777  1 Cwid
    5.000000   24.919641  159.074982  1 Cwid
    5.000000   24.919641  160.495193  1 Cwid
    5.000000   28.609640  158.364777  1 Cwid
    5.000000   27.379639  159.074982  1 Cwid
    5.000000   29.839640  159.074982  1 Cwid
    5.000000   27.379639  160.495193  1 Cwid
    5.000000   29.839640  160.495193  1 Cwid
    5.000000   21.229639  161.205399  1 Cwid
    5.000000   21.229639  162.625610  1 Cwid
    5.000000   22.459641  163.335815  1 Cwid
    5.000000   23.689640  161.205399  1 Cwid
    5.000000   26.149639  161.205399  1 Cwid
    5.000000   23.689640  162.625610  1 Cwid
    5.000000   26.149639  162.625610  1 Cwid
    5.000000   24.919641  163.335815  1 Cwid
    5.000000   28.609640  161.205399  1 Cwid
    5.000000   28.609640  162.625610  1 Cwid
    5.000000   27.379639  163.335815  1 Cwid
    5.000000   29.839640  163.335815  1 Cwid
    5.000000   22.459641  164.756042  1 Cwid
    5.000000   21.229639  165.466232  1 Cwid
    5.000000   21.229639  166.886459  1 Cwid
    5.000000   24.919641  164.756042  1 Cwid
    5.000000   23.689640  165.466232  1 Cwid
    5.000000   26.149639  165.466232  1 Cwid
    5.000000   23.689640  166.886459  1 Cwid
    5.000000   26.149639  166.886459  1 Cwid
    5.000000   27.379639  164.756042  1 Cwid