POSCAR(VASP)_with_position(SIESTA)
1.0
   10.020000    0.000000    0.000000
    0.000000   70.139999    0.000000
    0.000000    0.000000  128.080948
     C     H     C
   820   148   440
Cartesian
    5.010000   11.300676    0.715000 F F T # C
    5.010000   10.068246    1.426566 F F F # C
    5.010000   10.068246    2.849686 F F F # C
    5.010000   11.300676    3.561240 F F F # C
    5.010000   11.300676    4.984360 F F F # C
    5.010000   10.068246    5.695926 F F F # C
    5.010000   10.068246    7.119046 F F F # C
    5.010000   11.300676    7.830613 F F F # C
    5.010000   11.300676    9.253734 F F F # C
    5.010000   10.068246    9.965287 F F F # C
    5.010000   10.068246   11.388407 F F F # C
    5.010000   11.300676   12.099974 F F F # C
    5.010000   11.300676   13.523043 F F F # C
    5.010000   10.068246   14.234660 F F F # C
    5.010000   10.068246   15.657768 F F F # C
    5.010000   11.300676   16.369385 F F F # C
    5.010000   11.300676   17.792492 F F F # C
    5.010000   10.068246   18.503984 F F F # C
    5.010000   10.068246   19.927090 F F F # C
    5.010000   11.300676   20.638708 F F F # C
    5.010000   11.300676  107.449165 F F F # C
    5.010000   10.068246  108.160645 F F F # C
    5.010000   10.068246  109.583755 F F F # C
    5.010000   11.300676  110.295372 F F F # C
    5.010000   11.300676  111.718475 F F F # C
    5.010000   10.068246  112.430099 F F F # C
    5.010000   10.068246  113.853210 F F F # C
    5.010000   11.300676  114.564690 F F F # C
    5.010000   11.300676  115.987801 F F F # C
    5.010000   10.068246  116.699425 F F F # C
    5.010000   10.068246  118.122528 F F F # C
    5.010000   11.300676  118.834145 F F F # C
    5.010000   11.300676  120.257256 F F F # C
    5.010000   10.068246  120.968750 F F F # C
    5.010000   10.068246  122.391853 F F F # C
    5.010000   11.300676  123.103470 F F F # C
    5.010000   11.300676  124.526566 F F F # C
    5.010000   10.068246  125.238190 F F F # C
    5.010000   10.068246  126.661301 F F F # C
    5.010000   11.300676  127.372795 F F T # C
    5.010000   13.765607    0.715000 F F T # C
    5.010000   12.533106    1.426566 F F F # C
    5.010000   14.998035    1.426566 F F F # C
    5.010000   12.533106    2.849686 F F F # C
    5.010000   14.998035    2.849686 F F F # C
    5.010000   16.230536    0.715000 F F T # C
    5.010000   18.695465    0.715000 F F T # C
    5.010000   17.462965    1.426566 F F F # C
    5.010000   17.462965    2.849686 F F F # C
    5.010000   21.160326    0.715000 F F T # C
    5.010000   19.927896    1.426566 F F F # C
    5.010000   22.392824    1.426566 F F F # C
    5.010000   19.927896    2.849686 F F F # C
    5.010000   22.392824    2.849686 F F F # C
    5.010000   13.765607    3.561240 F F F # C
    5.010000   13.765607    4.984360 F F F # C
    5.010000   12.533106    5.695926 F F F # C
    5.010000   14.998035    5.695926 F F F # C
    5.010000   16.230536    3.561240 F F F # C
    5.010000   18.695465    3.561240 F F F # C
    5.010000   16.230536    4.984360 F F F # C
    5.010000   18.695465    4.984360 F F F # C
    5.010000   17.462965    5.695926 F F F # C
    5.010000   21.160326    3.561240 F F F # C
    5.010000   21.160326    4.984360 F F F # C
    5.010000   19.927896    5.695926 F F F # C
    5.010000   22.392824    5.695926 F F F # C
    5.010000   12.533106    7.119046 F F F # C
    5.010000   14.998035    7.119046 F F F # C
    5.010000   13.765607    7.830613 F F F # C
    5.010000   13.765607    9.253734 F F F # C
    5.010000   12.533106    9.965287 F F F # C
    5.010000   14.998035    9.965287 F F F # C
    5.010000   17.462965    7.119046 F F F # C
    5.010000   16.230536    7.830613 F F F # C
    5.010000   18.695465    7.830613 F F F # C
    5.010000   16.230536    9.253734 F F F # C
    5.010000   18.695465    9.253734 F F F # C
    5.010000   17.462965    9.965287 F F F # C
    5.010000   19.927896    7.119046 F F F # C
    5.010000   22.392824    7.119046 F F F # C
    5.010000   21.160326    7.830613 F F F # C
    5.010000   21.160326    9.253734 F F F # C
    5.010000   19.927896    9.965287 F F F # C
    5.010000   22.392824    9.965287 F F F # C
    5.010000   12.533106   11.388407 F F F # C
    5.010000   14.998035   11.388407 F F F # C
    5.010000   13.765607   12.099974 F F F # C
    5.010000   13.765607   13.523043 F F F # C
    5.010000   17.462965   11.388407 F F F # C
    5.010000   16.230536   12.099974 F F F # C
    5.010000   18.695465   12.099974 F F F # C
    5.010000   16.230536   13.523043 F F F # C
    5.010000   18.695465   13.523043 F F F # C
    5.010000   19.927896   11.388407 F F F # C
    5.010000   22.392824   11.388407 F F F # C
    5.010000   21.160326   12.099974 F F F # C
    5.010000   21.160326   13.523043 F F F # C
    5.010000   12.533106   14.234660 F F F # C
    5.010000   14.998035   14.234660 F F F # C
    5.010000   12.533106   15.657768 F F F # C
    5.010000   14.998035   15.657768 F F F # C
    5.010000   13.765607   16.369385 F F F # C
    5.010000   17.462965   14.234660 F F F # C
    5.010000   17.462965   15.657768 F F F # C
    5.010000   16.230536   16.369385 F F F # C
    5.010000   18.695465   16.369385 F F F # C
    5.010000   19.927896   14.234660 F F F # C
    5.010000   22.392824   14.234660 F F F # C
    5.010000   19.927896   15.657768 F F F # C
    5.010000   22.392824   15.657768 F F F # C
    5.010000   21.160326   16.369385 F F F # C
    5.010000   13.765607   17.792492 F F F # C
    5.010000   12.533106   18.503984 F F F # C
    5.010000   14.998035   18.503984 F F F # C
    5.010000   12.533106   19.927090 F F F # C
    5.010000   14.998035   19.927090 F F F # C
    5.010000   13.765607   20.638708 F F F # C
    5.010000   16.230536   17.792492 F F F # C
    5.010000   18.695465   17.792492 F F F # C
    5.010000   17.462965   18.503984 F F F # C
    5.010000   17.462965   19.927090 F F F # C
    5.010000   16.230536   20.638708 F F F # C
    5.010000   18.695465   20.638708 F F F # C
    5.010000   21.160326   17.792492 F F F # C
    5.010000   19.927896   18.503984 F F F # C
    5.010000   22.392824   18.503984 F F F # C
    5.010000   19.927896   19.927090 F F F # C
    5.010000   22.392824   19.927090 F F F # C
    5.010000   21.160326   20.638708 F F F # C
    5.010000   13.765607  107.449165 F F F # C
    5.010000   12.533106  108.160645 F F F # C
    5.010000   14.998035  108.160645 F F F # C
    5.010000   12.533106  109.583755 F F F # C
    5.010000   14.998035  109.583755 F F F # C
    5.010000   16.230536  107.449165 F F F # C
    5.010000   18.695465  107.449165 F F F # C
    5.010000   17.462965  108.160645 F F F # C
    5.010000   17.462965  109.583755 F F F # C
    5.010000   21.160326  107.449165 F F F # C
    5.010000   19.927896  108.160645 F F F # C
    5.010000   22.392824  108.160645 F F F # C
    5.010000   19.927896  109.583755 F F F # C
    5.010000   22.392824  109.583755 F F F # C
    5.010000   13.765607  110.295372 F F F # C
    5.010000   13.765607  111.718475 F F F # C
    5.010000   12.533106  112.430099 F F F # C
    5.010000   14.998035  112.430099 F F F # C
    5.010000   16.230536  110.295372 F F F # C
    5.010000   18.695465  110.295372 F F F # C
    5.010000   16.230536  111.718475 F F F # C
    5.010000   18.695465  111.718475 F F F # C
    5.010000   17.462965  112.430099 F F F # C
    5.010000   21.160326  110.295372 F F F # C
    5.010000   21.160326  111.718475 F F F # C
    5.010000   19.927896  112.430099 F F F # C
    5.010000   22.392824  112.430099 F F F # C
    5.010000   12.533106  113.853210 F F F # C
    5.010000   14.998035  113.853210 F F F # C
    5.010000   13.765607  114.564690 F F F # C
    5.010000   13.765607  115.987801 F F F # C
    5.010000   12.533106  116.699425 F F F # C
    5.010000   14.998035  116.699425 F F F # C
    5.010000   17.462965  113.853210 F F F # C
    5.010000   16.230536  114.564690 F F F # C
    5.010000   18.695465  114.564690 F F F # C
    5.010000   16.230536  115.987801 F F F # C
    5.010000   18.695465  115.987801 F F F # C
    5.010000   17.462965  116.699425 F F F # C
    5.010000   19.927896  113.853210 F F F # C
    5.010000   22.392824  113.853210 F F F # C
    5.010000   21.160326  114.564690 F F F # C
    5.010000   21.160326  115.987801 F F F # C
    5.010000   19.927896  116.699425 F F F # C
    5.010000   22.392824  116.699425 F F F # C
    5.010000   12.533106  118.122528 F F F # C
    5.010000   14.998035  118.122528 F F F # C
    5.010000   13.765607  118.834145 F F F # C
    5.010000   13.765607  120.257256 F F F # C
    5.010000   17.462965  118.122528 F F F # C
    5.010000   16.230536  118.834145 F F F # C
    5.010000   18.695465  118.834145 F F F # C
    5.010000   16.230536  120.257256 F F F # C
    5.010000   18.695465  120.257256 F F F # C
    5.010000   19.927896  118.122528 F F F # C
    5.010000   22.392824  118.122528 F F F # C
    5.010000   21.160326  118.834145 F F F # C
    5.010000   21.160326  120.257256 F F F # C
    5.010000   12.533106  120.968750 F F F # C
    5.010000   14.998035  120.968750 F F F # C
    5.010000   12.533106  122.391853 F F F # C
    5.010000   14.998035  122.391853 F F F # C
    5.010000   13.765607  123.103470 F F F # C
    5.010000   17.462965  120.968750 F F F # C
    5.010000   17.462965  122.391853 F F F # C
    5.010000   16.230536  123.103470 F F F # C
    5.010000   18.695465  123.103470 F F F # C
    5.010000   19.927896  120.968750 F F F # C
    5.010000   22.392824  120.968750 F F F # C
    5.010000   19.927896  122.391853 F F F # C
    5.010000   22.392824  122.391853 F F F # C
    5.010000   21.160326  123.103470 F F F # C
    5.010000   13.765607  124.526566 F F F # C
    5.010000   12.533106  125.238190 F F F # C
    5.010000   14.998035  125.238190 F F F # C
    5.010000   12.533106  126.661301 F F F # C
    5.010000   14.998035  126.661301 F F F # C
    5.010000   13.765607  127.372795 F F T # C
    5.010000   16.230536  124.526566 F F F # C
    5.010000   18.695465  124.526566 F F F # C
    5.010000   17.462965  125.238190 F F F # C
    5.010000   17.462965  126.661301 F F F # C
    5.010000   16.230536  127.372795 F F T # C
    5.010000   18.695465  127.372795 F F T # C
    5.010000   21.160326  124.526566 F F F # C
    5.010000   19.927896  125.238190 F F F # C
    5.010000   22.392824  125.238190 F F F # C
    5.010000   19.927896  126.661301 F F F # C
    5.010000   22.392824  126.661301 F F F # C
    5.010000   21.160326  127.372795 F F T # C
    5.010000   23.625256    0.715000 F F T # C
    5.010000   26.090187    0.715000 F F T # C
    5.010000   24.857756    1.426566 F F F # C
    5.010000   24.857756    2.849686 F F F # C
    5.010000   28.555115    0.715000 F F T # C
    5.010000   31.020048    0.715000 F F T # C
    5.010000   27.322617    1.426566 F F F # C
    5.010000   29.787546    1.426566 F F F # C
    5.010000   27.322617    2.849686 F F F # C
    5.010000   29.787546    2.849686 F F F # C
    5.010000   33.484978    0.715000 F F T # C
    5.010000   32.252476    1.426566 F F F # C
    5.010000   34.717403    1.426566 F F F # C
    5.010000   32.252476    2.849686 F F F # C
    5.010000   34.717403    2.849686 F F F # C
    5.010000   23.625256    3.561240 F F F # C
    5.010000   26.090187    3.561240 F F F # C
    5.010000   23.625256    4.984360 F F F # C
    5.010000   26.090187    4.984360 F F F # C
    5.010000   24.857756    5.695926 F F F # C
    5.010000   28.555115    3.561240 F F F # C
    5.010000   31.020048    3.561240 F F F # C
    5.010000   28.555115    4.984360 F F F # C
    5.010000   31.020048    4.984360 F F F # C
    5.010000   27.322617    5.695926 F F F # C
    5.010000   29.787546    5.695926 F F F # C
    5.010000   33.484978    3.561240 F F F # C
    5.010000   33.484978    4.984360 F F F # C
    5.010000   32.252476    5.695926 F F F # C
    5.010000   34.717403    5.695926 F F F # C
    5.010000   24.857756    7.119046 F F F # C
    5.010000   23.625256    7.830613 F F F # C
    5.010000   26.090187    7.830613 F F F # C
    5.010000   23.625256    9.253734 F F F # C
    5.010000   26.090187    9.253734 F F F # C
    5.010000   24.857756    9.965287 F F F # C
    5.010000   27.322617    7.119046 F F F # C
    5.010000   29.787546    7.119046 F F F # C
    5.010000   28.555115    7.830613 F F F # C
    5.010000   31.020048    7.830613 F F F # C
    5.010000   28.555115    9.253734 F F F # C
    5.010000   31.020048    9.253734 F F F # C
    5.010000   27.322617    9.965287 F F F # C
    5.010000   29.787546    9.965287 F F F # C
    5.010000   32.252476    7.119046 F F F # C
    5.010000   34.717403    7.119046 F F F # C
    5.010000   33.484978    7.830613 F F F # C
    5.010000   33.484978    9.253734 F F F # C
    5.010000   32.252476    9.965287 F F F # C
    5.010000   34.717403    9.965287 F F F # C
    5.010000   24.857756   11.388407 F F F # C
    5.010000   23.625256   12.099974 F F F # C
    5.010000   26.090187   12.099974 F F F # C
    5.010000   23.625256   13.523043 F F F # C
    5.010000   26.090187   13.523043 F F F # C
    5.010000   27.322617   11.388407 F F F # C
    5.010000   29.787546   11.388407 F F F # C
    5.010000   28.555115   12.099974 F F F # C
    5.010000   31.020048   12.099974 F F F # C
    5.010000   28.555115   13.523043 F F F # C
    5.010000   31.020048   13.523043 F F F # C
    5.010000   32.252476   11.388407 F F F # C
    5.010000   34.717403   11.388407 F F F # C
    5.010000   33.484978   12.099974 F F F # C
    5.010000   33.484978   13.523043 F F F # C
    5.010000   24.857756   14.234660 F F F # C
    5.010000   24.857756   15.657768 F F F # C
    5.010000   23.625256   16.369385 F F F # C
    5.010000   26.090187   16.369385 F F F # C
    5.010000   27.322617   14.234660 F F F # C
    5.010000   29.787546   14.234660 F F F # C
    5.010000   27.322617   15.657768 F F F # C
    5.010000   29.787546   15.657768 F F F # C
    5.010000   28.555115   16.369385 F F F # C
    5.010000   31.020048   16.369385 F F F # C
    5.010000   32.252476   14.234660 F F F # C
    5.010000   34.717403   14.234660 F F F # C
    5.010000   32.252476   15.657768 F F F # C
    5.010000   34.717403   15.657768 F F F # C
    5.010000   33.484978   16.369385 F F F # C
    5.010000   23.625256   17.792492 F F F # C
    5.010000   26.090187   17.792492 F F F # C
    5.010000   24.857756   18.503984 F F F # C
    5.010000   24.857756   19.927090 F F F # C
    5.010000   23.625256   20.638708 F F F # C
    5.010000   26.090187   20.638708 F F F # C
    5.010000   28.555115   17.792492 F F F # C
    5.010000   31.020048   17.792492 F F F # C
    5.010000   27.322617   18.503984 F F F # C
    5.010000   29.787546   18.503984 F F F # C
    5.010000   27.322617   19.927090 F F F # C
    5.010000   29.787546   19.927090 F F F # C
    5.010000   28.555115   20.638708 F F F # C
    5.010000   31.020048   20.638708 F F F # C
    5.010000   33.484978   17.792492 F F F # C
    5.010000   32.252476   18.503984 F F F # C
    5.010000   34.717403   18.503984 F F F # C
    5.010000   32.252476   19.927090 F F F # C
    5.010000   34.717403   19.927090 F F F # C
    5.010000   33.484978   20.638708 F F F # C
    5.010000   23.625256  107.449165 F F F # C
    5.010000   26.090187  107.449165 F F F # C
    5.010000   24.857756  108.160645 F F F # C
    5.010000   24.857756  109.583755 F F F # C
    5.010000   28.555115  107.449165 F F F # C
    5.010000   31.020048  107.449165 F F F # C
    5.010000   27.322617  108.160645 F F F # C
    5.010000   29.787546  108.160645 F F F # C
    5.010000   27.322617  109.583755 F F F # C
    5.010000   29.787546  109.583755 F F F # C
    5.010000   33.484978  107.449165 F F F # C
    5.010000   32.252476  108.160645 F F F # C
    5.010000   34.717403  108.160645 F F F # C
    5.010000   32.252476  109.583755 F F F # C
    5.010000   34.717403  109.583755 F F F # C
    5.010000   23.625256  110.295372 F F F # C
    5.010000   26.090187  110.295372 F F F # C
    5.010000   23.625256  111.718475 F F F # C
    5.010000   26.090187  111.718475 F F F # C
    5.010000   24.857756  112.430099 F F F # C
    5.010000   28.555115  110.295372 F F F # C
    5.010000   31.020048  110.295372 F F F # C
    5.010000   28.555115  111.718475 F F F # C
    5.010000   31.020048  111.718475 F F F # C
    5.010000   27.322617  112.430099 F F F # C
    5.010000   29.787546  112.430099 F F F # C
    5.010000   33.484978  110.295372 F F F # C
    5.010000   33.484978  111.718475 F F F # C
    5.010000   32.252476  112.430099 F F F # C
    5.010000   34.717403  112.430099 F F F # C
    5.010000   24.857756  113.853210 F F F # C
    5.010000   23.625256  114.564690 F F F # C
    5.010000   26.090187  114.564690 F F F # C
    5.010000   23.625256  115.987801 F F F # C
    5.010000   26.090187  115.987801 F F F # C
    5.010000   24.857756  116.699425 F F F # C
    5.010000   27.322617  113.853210 F F F # C
    5.010000   29.787546  113.853210 F F F # C
    5.010000   28.555115  114.564690 F F F # C
    5.010000   31.020048  114.564690 F F F # C
    5.010000   28.555115  115.987801 F F F # C
    5.010000   31.020048  115.987801 F F F # C
    5.010000   27.322617  116.699425 F F F # C
    5.010000   29.787546  116.699425 F F F # C
    5.010000   32.252476  113.853210 F F F # C
    5.010000   34.717403  113.853210 F F F # C
    5.010000   33.484978  114.564690 F F F # C
    5.010000   33.484978  115.987801 F F F # C
    5.010000   32.252476  116.699425 F F F # C
    5.010000   34.717403  116.699425 F F F # C
    5.010000   24.857756  118.122528 F F F # C
    5.010000   23.625256  118.834145 F F F # C
    5.010000   26.090187  118.834145 F F F # C
    5.010000   23.625256  120.257256 F F F # C
    5.010000   26.090187  120.257256 F F F # C
    5.010000   27.322617  118.122528 F F F # C
    5.010000   29.787546  118.122528 F F F # C
    5.010000   28.555115  118.834145 F F F # C
    5.010000   31.020048  118.834145 F F F # C
    5.010000   28.555115  120.257256 F F F # C
    5.010000   31.020048  120.257256 F F F # C
    5.010000   32.252476  118.122528 F F F # C
    5.010000   34.717403  118.122528 F F F # C
    5.010000   33.484978  118.834145 F F F # C
    5.010000   33.484978  120.257256 F F F # C
    5.010000   24.857756  120.968750 F F F # C
    5.010000   24.857756  122.391853 F F F # C
    5.010000   23.625256  123.103470 F F F # C
    5.010000   26.090187  123.103470 F F F # C
    5.010000   27.322617  120.968750 F F F # C
    5.010000   29.787546  120.968750 F F F # C
    5.010000   27.322617  122.391853 F F F # C
    5.010000   29.787546  122.391853 F F F # C
    5.010000   28.555115  123.103470 F F F # C
    5.010000   31.020048  123.103470 F F F # C
    5.010000   32.252476  120.968750 F F F # C
    5.010000   34.717403  120.968750 F F F # C
    5.010000   32.252476  122.391853 F F F # C
    5.010000   34.717403  122.391853 F F F # C
    5.010000   33.484978  123.103470 F F F # C
    5.010000   23.625256  124.526566 F F F # C
    5.010000   26.090187  124.526566 F F F # C
    5.010000   24.857756  125.238190 F F F # C
    5.010000   24.857756  126.661301 F F F # C
    5.010000   23.625256  127.372795 F F T # C
    5.010000   26.090187  127.372795 F F T # C
    5.010000   28.555115  124.526566 F F F # C
    5.010000   31.020048  124.526566 F F F # C
    5.010000   27.322617  125.238190 F F F # C
    5.010000   29.787546  125.238190 F F F # C
    5.010000   27.322617  126.661301 F F F # C
    5.010000   29.787546  126.661301 F F F # C
    5.010000   28.555115  127.372795 F F T # C
    5.010000   31.020048  127.372795 F F T # C
    5.010000   33.484978  124.526566 F F F # C
    5.010000   32.252476  125.238190 F F F # C
    5.010000   34.717403  125.238190 F F F # C
    5.010000   32.252476  126.661301 F F F # C
    5.010000   34.717403  126.661301 F F F # C
    5.010000   33.484978  127.372795 F F T # C
    5.010000   35.949833    0.715000 F F T # C
    5.010000   38.414764    0.715000 F F T # C
    5.010000   37.182335    1.426566 F F F # C
    5.010000   37.182335    2.849686 F F F # C
    5.010000   40.879696    0.715000 F F T # C
    5.010000   39.647266    1.426566 F F F # C
    5.010000   42.112198    1.426566 F F F # C
    5.010000   39.647266    2.849686 F F F # C
    5.010000   42.112198    2.849686 F F F # C
    5.010000   43.344627    0.715000 F F T # C
    5.010000   45.809555    0.715000 F F T # C
    5.010000   44.577053    1.426566 F F F # C
    5.010000   44.577053    2.849686 F F F # C
    5.010000   35.949833    3.561240 F F F # C
    5.010000   38.414764    3.561240 F F F # C
    5.010000   35.949833    4.984360 F F F # C
    5.010000   38.414764    4.984360 F F F # C
    5.010000   37.182335    5.695926 F F F # C
    5.010000   40.879696    3.561240 F F F # C
    5.010000   40.879696    4.984360 F F F # C
    5.010000   39.647266    5.695926 F F F # C
    5.010000   42.112198    5.695926 F F F # C
    5.010000   43.344627    3.561240 F F F # C
    5.010000   45.809555    3.561240 F F F # C
    5.010000   43.344627    4.984360 F F F # C
    5.010000   45.809555    4.984360 F F F # C
    5.010000   44.577053    5.695926 F F F # C
    5.010000   37.182335    7.119046 F F F # C
    5.010000   35.949833    7.830613 F F F # C
    5.010000   38.414764    7.830613 F F F # C
    5.010000   35.949833    9.253734 F F F # C
    5.010000   38.414764    9.253734 F F F # C
    5.010000   37.182335    9.965287 F F F # C
    5.010000   39.647266    7.119046 F F F # C
    5.010000   42.112198    7.119046 F F F # C
    5.010000   40.879696    7.830613 F F F # C
    5.010000   40.879696    9.253734 F F F # C
    5.010000   39.647266    9.965287 F F F # C
    5.010000   42.112198    9.965287 F F F # C
    5.010000   44.577053    7.119046 F F F # C
    5.010000   43.344627    7.830613 F F F # C
    5.010000   45.809555    7.830613 F F F # C
    5.010000   43.344627    9.253734 F F F # C
    5.010000   45.809555    9.253734 F F F # C
    5.010000   44.577053    9.965287 F F F # C
    5.010000   37.182335   11.388407 F F F # C
    5.010000   35.949833   12.099974 F F F # C
    5.010000   38.414764   12.099974 F F F # C
    5.010000   35.949833   13.523043 F F F # C
    5.010000   38.414764   13.523043 F F F # C
    5.010000   39.647266   11.388407 F F F # C
    5.010000   42.112198   11.388407 F F F # C
    5.010000   40.879696   12.099974 F F F # C
    5.010000   40.879696   13.523043 F F F # C
    5.010000   44.577053   11.388407 F F F # C
    5.010000   43.344627   12.099974 F F F # C
    5.010000   45.809555   12.099974 F F F # C
    5.010000   43.344627   13.523043 F F F # C
    5.010000   45.809555   13.523043 F F F # C
    5.010000   37.182335   14.234660 F F F # C
    5.010000   37.182335   15.657768 F F F # C
    5.010000   35.949833   16.369385 F F F # C
    5.010000   38.414764   16.369385 F F F # C
    5.010000   39.647266   14.234660 F F F # C
    5.010000   42.112198   14.234660 F F F # C
    5.010000   39.647266   15.657768 F F F # C
    5.010000   42.112198   15.657768 F F F # C
    5.010000   40.879696   16.369385 F F F # C
    5.010000   44.577053   14.234660 F F F # C
    5.010000   44.577053   15.657768 F F F # C
    5.010000   43.344627   16.369385 F F F # C
    5.010000   45.809555   16.369385 F F F # C
    5.010000   35.949833   17.792492 F F F # C
    5.010000   38.414764   17.792492 F F F # C
    5.010000   37.182335   18.503984 F F F # C
    5.010000   37.182335   19.927090 F F F # C
    5.010000   35.949833   20.638708 F F F # C
    5.010000   38.414764   20.638708 F F F # C
    5.010000   40.879696   17.792492 F F F # C
    5.010000   39.647266   18.503984 F F F # C
    5.010000   42.112198   18.503984 F F F # C
    5.010000   39.647266   19.927090 F F F # C
    5.010000   42.112198   19.927090 F F F # C
    5.010000   40.879696   20.638708 F F F # C
    5.010000   43.344627   17.792492 F F F # C
    5.010000   45.809555   17.792492 F F F # C
    5.010000   44.577053   18.503984 F F F # C
    5.010000   44.577053   19.927090 F F F # C
    5.010000   43.344627   20.638708 F F F # C
    5.010000   45.809555   20.638708 F F F # C
    5.010000   35.949833  107.449165 F F F # C
    5.010000   38.414764  107.449165 F F F # C
    5.010000   37.182335  108.160645 F F F # C
    5.010000   37.182335  109.583755 F F F # C
    5.010000   40.879696  107.449165 F F F # C
    5.010000   39.647266  108.160645 F F F # C
    5.010000   42.112198  108.160645 F F F # C
    5.010000   39.647266  109.583755 F F F # C
    5.010000   42.112198  109.583755 F F F # C
    5.010000   43.344627  107.449165 F F F # C
    5.010000   45.809555  107.449165 F F F # C
    5.010000   44.577053  108.160645 F F F # C
    5.010000   44.577053  109.583755 F F F # C
    5.010000   35.949833  110.295372 F F F # C
    5.010000   38.414764  110.295372 F F F # C
    5.010000   35.949833  111.718475 F F F # C
    5.010000   38.414764  111.718475 F F F # C
    5.010000   37.182335  112.430099 F F F # C
    5.010000   40.879696  110.295372 F F F # C
    5.010000   40.879696  111.718475 F F F # C
    5.010000   39.647266  112.430099 F F F # C
    5.010000   42.112198  112.430099 F F F # C
    5.010000   43.344627  110.295372 F F F # C
    5.010000   45.809555  110.295372 F F F # C
    5.010000   43.344627  111.718475 F F F # C
    5.010000   45.809555  111.718475 F F F # C
    5.010000   44.577053  112.430099 F F F # C
    5.010000   37.182335  113.853210 F F F # C
    5.010000   35.949833  114.564690 F F F # C
    5.010000   38.414764  114.564690 F F F # C
    5.010000   35.949833  115.987801 F F F # C
    5.010000   38.414764  115.987801 F F F # C
    5.010000   37.182335  116.699425 F F F # C
    5.010000   39.647266  113.853210 F F F # C
    5.010000   42.112198  113.853210 F F F # C
    5.010000   40.879696  114.564690 F F F # C
    5.010000   40.879696  115.987801 F F F # C
    5.010000   39.647266  116.699425 F F F # C
    5.010000   42.112198  116.699425 F F F # C
    5.010000   44.577053  113.853210 F F F # C
    5.010000   43.344627  114.564690 F F F # C
    5.010000   45.809555  114.564690 F F F # C
    5.010000   43.344627  115.987801 F F F # C
    5.010000   45.809555  115.987801 F F F # C
    5.010000   44.577053  116.699425 F F F # C
    5.010000   37.182335  118.122528 F F F # C
    5.010000   35.949833  118.834145 F F F # C
    5.010000   38.414764  118.834145 F F F # C
    5.010000   35.949833  120.257256 F F F # C
    5.010000   38.414764  120.257256 F F F # C
    5.010000   39.647266  118.122528 F F F # C
    5.010000   42.112198  118.122528 F F F # C
    5.010000   40.879696  118.834145 F F F # C
    5.010000   40.879696  120.257256 F F F # C
    5.010000   44.577053  118.122528 F F F # C
    5.010000   43.344627  118.834145 F F F # C
    5.010000   45.809555  118.834145 F F F # C
    5.010000   43.344627  120.257256 F F F # C
    5.010000   45.809555  120.257256 F F F # C
    5.010000   37.182335  120.968750 F F F # C
    5.010000   37.182335  122.391853 F F F # C
    5.010000   35.949833  123.103470 F F F # C
    5.010000   38.414764  123.103470 F F F # C
    5.010000   39.647266  120.968750 F F F # C
    5.010000   42.112198  120.968750 F F F # C
    5.010000   39.647266  122.391853 F F F # C
    5.010000   42.112198  122.391853 F F F # C
    5.010000   40.879696  123.103470 F F F # C
    5.010000   44.577053  120.968750 F F F # C
    5.010000   44.577053  122.391853 F F F # C
    5.010000   43.344627  123.103470 F F F # C
    5.010000   45.809555  123.103470 F F F # C
    5.010000   35.949833  124.526566 F F F # C
    5.010000   38.414764  124.526566 F F F # C
    5.010000   37.182335  125.238190 F F F # C
    5.010000   37.182335  126.661301 F F F # C
    5.010000   35.949833  127.372795 F F T # C
    5.010000   38.414764  127.372795 F F T # C
    5.010000   40.879696  124.526566 F F F # C
    5.010000   39.647266  125.238190 F F F # C
    5.010000   42.112198  125.238190 F F F # C
    5.010000   39.647266  126.661301 F F F # C
    5.010000   42.112198  126.661301 F F F # C
    5.010000   40.879696  127.372795 F F T # C
    5.010000   43.344627  124.526566 F F F # C
    5.010000   45.809555  124.526566 F F F # C
    5.010000   44.577053  125.238190 F F F # C
    5.010000   44.577053  126.661301 F F F # C
    5.010000   43.344627  127.372795 F F T # C
    5.010000   45.809555  127.372795 F F T # C
    5.010000   48.274487    0.715000 F F T # C
    5.010000   47.041985    1.426566 F F F # C
    5.010000   49.506916    1.426566 F F F # C
    5.010000   47.041985    2.849686 F F F # C
    5.010000   49.506916    2.849686 F F F # C
    5.010000   50.739346    0.715000 F F T # C
    5.010000   53.204277    0.715000 F F T # C
    5.010000   51.971844    1.426566 F F F # C
    5.010000   54.436775    1.426566 F F F # C
    5.010000   51.971844    2.849686 F F F # C
    5.010000   54.436775    2.849686 F F F # C
    5.010000   55.669205    0.715000 F F T # C
    5.010000   58.134136    0.715000 F F T # C
    5.010000   56.901703    1.426566 F F F # C
    5.010000   56.901703    2.849686 F F F # C
    5.010000   48.274487    3.561240 F F F # C
    5.010000   48.274487    4.984360 F F F # C
    5.010000   47.041985    5.695926 F F F # C
    5.010000   49.506916    5.695926 F F F # C
    5.010000   50.739346    3.561240 F F F # C
    5.010000   53.204277    3.561240 F F F # C
    5.010000   50.739346    4.984360 F F F # C
    5.010000   53.204277    4.984360 F F F # C
    5.010000   51.971844    5.695926 F F F # C
    5.010000   54.436775    5.695926 F F F # C
    5.010000   55.669205    3.561240 F F F # C
    5.010000   58.134136    3.561240 F F F # C
    5.010000   55.669205    4.984360 F F F # C
    5.010000   58.134136    4.984360 F F F # C
    5.010000   56.901703    5.695926 F F F # C
    5.010000   47.041985    7.119046 F F F # C
    5.010000   49.506916    7.119046 F F F # C
    5.010000   48.274487    7.830613 F F F # C
    5.010000   48.274487    9.253734 F F F # C