POSCAR(VASP)_with_position(SIESTA)
1.0
   10.080000    0.000000    0.000000
    0.000000   70.559998    0.000000
    0.000000    0.000000  128.847900
     C     H     C
   820   148   440
Cartesian
    5.040000   11.368345    0.719282 F F T # C
    5.040000   10.128535    1.435108 F F F # C
    5.040000   10.128535    2.866750 F F F # C
    5.040000   11.368345    3.582565 F F F # C
    5.040000   11.368345    5.014207 F F F # C
    5.040000   10.128535    5.730034 F F F # C
    5.040000   10.128535    7.161676 F F F # C
    5.040000   11.368345    7.877503 F F F # C
    5.040000   11.368345    9.309145 F F F # C
    5.040000   10.128535   10.024960 F F F # C
    5.040000   10.128535   11.456601 F F F # C
    5.040000   11.368345   12.172429 F F F # C
    5.040000   11.368345   13.604019 F F F # C
    5.040000   10.128535   14.319899 F F F # C
    5.040000   10.128535   15.751528 F F F # C
    5.040000   11.368345   16.467405 F F F # C
    5.040000   11.368345   17.899035 F F F # C
    5.040000   10.128535   18.614788 F F F # C
    5.040000   10.128535   20.046415 F F F # C
    5.040000   11.368345   20.762293 F F F # C
    5.040000   11.368345  108.092575 F F F # C
    5.040000   10.128535  108.808319 F F F # C
    5.040000   10.128535  110.239952 F F F # C
    5.040000   11.368345  110.955826 F F F # C
    5.040000   11.368345  112.387459 F F F # C
    5.040000   10.128535  113.103333 F F F # C
    5.040000   10.128535  114.534973 F F F # C
    5.040000   11.368345  115.250710 F F F # C
    5.040000   11.368345  116.682350 F F F # C
    5.040000   10.128535  117.398224 F F F # C
    5.040000   10.128535  118.829849 F F F # C
    5.040000   11.368345  119.545731 F F F # C
    5.040000   11.368345  120.977364 F F F # C
    5.040000   10.128535  121.693115 F F F # C
    5.040000   10.128535  123.124741 F F F # C
    5.040000   11.368345  123.840622 F F F # C
    5.040000   11.368345  125.272240 F F F # C
    5.040000   10.128535  125.988129 F F F # C
    5.040000   10.128535  127.419754 F F F # C
    5.040000   11.368345  128.135513 F F T # C
    5.040000   13.848036    0.719282 F F T # C
    5.040000   12.608155    1.435108 F F F # C
    5.040000   15.087845    1.435108 F F F # C
    5.040000   12.608155    2.866750 F F F # C
    5.040000   15.087845    2.866750 F F F # C
    5.040000   16.327724    0.719282 F F T # C
    5.040000   18.807415    0.719282 F F T # C
    5.040000   17.567535    1.435108 F F F # C
    5.040000   17.567535    2.866750 F F F # C
    5.040000   21.287035    0.719282 F F T # C
    5.040000   20.047226    1.435108 F F F # C
    5.040000   22.526915    1.435108 F F F # C
    5.040000   20.047226    2.866750 F F F # C
    5.040000   22.526915    2.866750 F F F # C
    5.040000   13.848036    3.582565 F F F # C
    5.040000   13.848036    5.014207 F F F # C
    5.040000   12.608155    5.730034 F F F # C
    5.040000   15.087845    5.730034 F F F # C
    5.040000   16.327724    3.582565 F F F # C
    5.040000   18.807415    3.582565 F F F # C
    5.040000   16.327724    5.014207 F F F # C
    5.040000   18.807415    5.014207 F F F # C
    5.040000   17.567535    5.730034 F F F # C
    5.040000   21.287035    3.582565 F F F # C
    5.040000   21.287035    5.014207 F F F # C
    5.040000   20.047226    5.730034 F F F # C
    5.040000   22.526915    5.730034 F F F # C
    5.040000   12.608155    7.161676 F F F # C
    5.040000   15.087845    7.161676 F F F # C
    5.040000   13.848036    7.877503 F F F # C
    5.040000   13.848036    9.309145 F F F # C
    5.040000   12.608155   10.024960 F F F # C
    5.040000   15.087845   10.024960 F F F # C
    5.040000   17.567535    7.161676 F F F # C
    5.040000   16.327724    7.877503 F F F # C
    5.040000   18.807415    7.877503 F F F # C
    5.040000   16.327724    9.309145 F F F # C
    5.040000   18.807415    9.309145 F F F # C
    5.040000   17.567535   10.024960 F F F # C
    5.040000   20.047226    7.161676 F F F # C
    5.040000   22.526915    7.161676 F F F # C
    5.040000   21.287035    7.877503 F F F # C
    5.040000   21.287035    9.309145 F F F # C
    5.040000   20.047226   10.024960 F F F # C
    5.040000   22.526915   10.024960 F F F # C
    5.040000   12.608155   11.456601 F F F # C
    5.040000   15.087845   11.456601 F F F # C
    5.040000   13.848036   12.172429 F F F # C
    5.040000   13.848036   13.604019 F F F # C
    5.040000   17.567535   11.456601 F F F # C
    5.040000   16.327724   12.172429 F F F # C
    5.040000   18.807415   12.172429 F F F # C
    5.040000   16.327724   13.604019 F F F # C
    5.040000   18.807415   13.604019 F F F # C
    5.040000   20.047226   11.456601 F F F # C
    5.040000   22.526915   11.456601 F F F # C
    5.040000   21.287035   12.172429 F F F # C
    5.040000   21.287035   13.604019 F F F # C
    5.040000   12.608155   14.319899 F F F # C
    5.040000   15.087845   14.319899 F F F # C
    5.040000   12.608155   15.751528 F F F # C
    5.040000   15.087845   15.751528 F F F # C
    5.040000   13.848036   16.467405 F F F # C
    5.040000   17.567535   14.319899 F F F # C
    5.040000   17.567535   15.751528 F F F # C
    5.040000   16.327724   16.467405 F F F # C
    5.040000   18.807415   16.467405 F F F # C
    5.040000   20.047226   14.319899 F F F # C
    5.040000   22.526915   14.319899 F F F # C
    5.040000   20.047226   15.751528 F F F # C
    5.040000   22.526915   15.751528 F F F # C
    5.040000   21.287035   16.467405 F F F # C
    5.040000   13.848036   17.899035 F F F # C
    5.040000   12.608155   18.614788 F F F # C
    5.040000   15.087845   18.614788 F F F # C
    5.040000   12.608155   20.046415 F F F # C
    5.040000   15.087845   20.046415 F F F # C
    5.040000   13.848036   20.762293 F F F # C
    5.040000   16.327724   17.899035 F F F # C
    5.040000   18.807415   17.899035 F F F # C
    5.040000   17.567535   18.614788 F F F # C
    5.040000   17.567535   20.046415 F F F # C
    5.040000   16.327724   20.762293 F F F # C
    5.040000   18.807415   20.762293 F F F # C
    5.040000   21.287035   17.899035 F F F # C
    5.040000   20.047226   18.614788 F F F # C
    5.040000   22.526915   18.614788 F F F # C
    5.040000   20.047226   20.046415 F F F # C
    5.040000   22.526915   20.046415 F F F # C
    5.040000   21.287035   20.762293 F F F # C
    5.040000   13.848036  108.092575 F F F # C
    5.040000   12.608155  108.808319 F F F # C
    5.040000   15.087845  108.808319 F F F # C
    5.040000   12.608155  110.239952 F F F # C
    5.040000   15.087845  110.239952 F F F # C
    5.040000   16.327724  108.092575 F F F # C
    5.040000   18.807415  108.092575 F F F # C
    5.040000   17.567535  108.808319 F F F # C
    5.040000   17.567535  110.239952 F F F # C
    5.040000   21.287035  108.092575 F F F # C
    5.040000   20.047226  108.808319 F F F # C
    5.040000   22.526915  108.808319 F F F # C
    5.040000   20.047226  110.239952 F F F # C
    5.040000   22.526915  110.239952 F F F # C
    5.040000   13.848036  110.955826 F F F # C
    5.040000   13.848036  112.387459 F F F # C
    5.040000   12.608155  113.103333 F F F # C
    5.040000   15.087845  113.103333 F F F # C
    5.040000   16.327724  110.955826 F F F # C
    5.040000   18.807415  110.955826 F F F # C
    5.040000   16.327724  112.387459 F F F # C
    5.040000   18.807415  112.387459 F F F # C
    5.040000   17.567535  113.103333 F F F # C
    5.040000   21.287035  110.955826 F F F # C
    5.040000   21.287035  112.387459 F F F # C
    5.040000   20.047226  113.103333 F F F # C
    5.040000   22.526915  113.103333 F F F # C
    5.040000   12.608155  114.534973 F F F # C
    5.040000   15.087845  114.534973 F F F # C
    5.040000   13.848036  115.250710 F F F # C
    5.040000   13.848036  116.682350 F F F # C
    5.040000   12.608155  117.398224 F F F # C
    5.040000   15.087845  117.398224 F F F # C
    5.040000   17.567535  114.534973 F F F # C
    5.040000   16.327724  115.250710 F F F # C
    5.040000   18.807415  115.250710 F F F # C
    5.040000   16.327724  116.682350 F F F # C
    5.040000   18.807415  116.682350 F F F # C
    5.040000   17.567535  117.398224 F F F # C
    5.040000   20.047226  114.534973 F F F # C
    5.040000   22.526915  114.534973 F F F # C
    5.040000   21.287035  115.250710 F F F # C
    5.040000   21.287035  116.682350 F F F # C
    5.040000   20.047226  117.398224 F F F # C
    5.040000   22.526915  117.398224 F F F # C
    5.040000   12.608155  118.829849 F F F # C
    5.040000   15.087845  118.829849 F F F # C
    5.040000   13.848036  119.545731 F F F # C
    5.040000   13.848036  120.977364 F F F # C
    5.040000   17.567535  118.829849 F F F # C
    5.040000   16.327724  119.545731 F F F # C
    5.040000   18.807415  119.545731 F F F # C
    5.040000   16.327724  120.977364 F F F # C
    5.040000   18.807415  120.977364 F F F # C
    5.040000   20.047226  118.829849 F F F # C
    5.040000   22.526915  118.829849 F F F # C
    5.040000   21.287035  119.545731 F F F # C
    5.040000   21.287035  120.977364 F F F # C
    5.040000   12.608155  121.693115 F F F # C
    5.040000   15.087845  121.693115 F F F # C
    5.040000   12.608155  123.124741 F F F # C
    5.040000   15.087845  123.124741 F F F # C
    5.040000   13.848036  123.840622 F F F # C
    5.040000   17.567535  121.693115 F F F # C
    5.040000   17.567535  123.124741 F F F # C
    5.040000   16.327724  123.840622 F F F # C
    5.040000   18.807415  123.840622 F F F # C
    5.040000   20.047226  121.693115 F F F # C
    5.040000   22.526915  121.693115 F F F # C
    5.040000   20.047226  123.124741 F F F # C
    5.040000   22.526915  123.124741 F F F # C
    5.040000   21.287035  123.840622 F F F # C
    5.040000   13.848036  125.272240 F F F # C
    5.040000   12.608155  125.988129 F F F # C
    5.040000   15.087845  125.988129 F F F # C
    5.040000   12.608155  127.419754 F F F # C
    5.040000   15.087845  127.419754 F F F # C
    5.040000   13.848036  128.135513 F F T # C
    5.040000   16.327724  125.272240 F F F # C
    5.040000   18.807415  125.272240 F F F # C
    5.040000   17.567535  125.988129 F F F # C
    5.040000   17.567535  127.419754 F F F # C
    5.040000   16.327724  128.135513 F F T # C
    5.040000   18.807415  128.135513 F F T # C
    5.040000   21.287035  125.272240 F F F # C
    5.040000   20.047226  125.988129 F F F # C
    5.040000   22.526915  125.988129 F F F # C
    5.040000   20.047226  127.419754 F F F # C
    5.040000   22.526915  127.419754 F F F # C
    5.040000   21.287035  128.135513 F F T # C
    5.040000   23.766726    0.719282 F F T # C
    5.040000   26.246416    0.719282 F F T # C
    5.040000   25.006605    1.435108 F F F # C
    5.040000   25.006605    2.866750 F F F # C
    5.040000   28.726105    0.719282 F F T # C
    5.040000   31.205797    0.719282 F F T # C
    5.040000   27.486227    1.435108 F F F # C
    5.040000   29.965916    1.435108 F F F # C
    5.040000   27.486227    2.866750 F F F # C
    5.040000   29.965916    2.866750 F F F # C
    5.040000   33.685486    0.719282 F F T # C
    5.040000   32.445602    1.435108 F F F # C
    5.040000   34.925293    1.435108 F F F # C
    5.040000   32.445602    2.866750 F F F # C
    5.040000   34.925293    2.866750 F F F # C
    5.040000   23.766726    3.582565 F F F # C
    5.040000   26.246416    3.582565 F F F # C
    5.040000   23.766726    5.014207 F F F # C
    5.040000   26.246416    5.014207 F F F # C
    5.040000   25.006605    5.730034 F F F # C
    5.040000   28.726105    3.582565 F F F # C
    5.040000   31.205797    3.582565 F F F # C
    5.040000   28.726105    5.014207 F F F # C
    5.040000   31.205797    5.014207 F F F # C
    5.040000   27.486227    5.730034 F F F # C
    5.040000   29.965916    5.730034 F F F # C
    5.040000   33.685486    3.582565 F F F # C
    5.040000   33.685486    5.014207 F F F # C
    5.040000   32.445602    5.730034 F F F # C
    5.040000   34.925293    5.730034 F F F # C
    5.040000   25.006605    7.161676 F F F # C
    5.040000   23.766726    7.877503 F F F # C
    5.040000   26.246416    7.877503 F F F # C
    5.040000   23.766726    9.309145 F F F # C
    5.040000   26.246416    9.309145 F F F # C
    5.040000   25.006605   10.024960 F F F # C
    5.040000   27.486227    7.161676 F F F # C
    5.040000   29.965916    7.161676 F F F # C
    5.040000   28.726105    7.877503 F F F # C
    5.040000   31.205797    7.877503 F F F # C
    5.040000   28.726105    9.309145 F F F # C
    5.040000   31.205797    9.309145 F F F # C
    5.040000   27.486227   10.024960 F F F # C
    5.040000   29.965916   10.024960 F F F # C
    5.040000   32.445602    7.161676 F F F # C
    5.040000   34.925293    7.161676 F F F # C
    5.040000   33.685486    7.877503 F F F # C
    5.040000   33.685486    9.309145 F F F # C
    5.040000   32.445602   10.024960 F F F # C
    5.040000   34.925293   10.024960 F F F # C
    5.040000   25.006605   11.456601 F F F # C
    5.040000   23.766726   12.172429 F F F # C
    5.040000   26.246416   12.172429 F F F # C
    5.040000   23.766726   13.604019 F F F # C
    5.040000   26.246416   13.604019 F F F # C
    5.040000   27.486227   11.456601 F F F # C
    5.040000   29.965916   11.456601 F F F # C
    5.040000   28.726105   12.172429 F F F # C
    5.040000   31.205797   12.172429 F F F # C
    5.040000   28.726105   13.604019 F F F # C
    5.040000   31.205797   13.604019 F F F # C
    5.040000   32.445602   11.456601 F F F # C
    5.040000   34.925293   11.456601 F F F # C
    5.040000   33.685486   12.172429 F F F # C
    5.040000   33.685486   13.604019 F F F # C
    5.040000   25.006605   14.319899 F F F # C
    5.040000   25.006605   15.751528 F F F # C
    5.040000   23.766726   16.467405 F F F # C
    5.040000   26.246416   16.467405 F F F # C
    5.040000   27.486227   14.319899 F F F # C
    5.040000   29.965916   14.319899 F F F # C
    5.040000   27.486227   15.751528 F F F # C
    5.040000   29.965916   15.751528 F F F # C
    5.040000   28.726105   16.467405 F F F # C
    5.040000   31.205797   16.467405 F F F # C
    5.040000   32.445602   14.319899 F F F # C
    5.040000   34.925293   14.319899 F F F # C
    5.040000   32.445602   15.751528 F F F # C
    5.040000   34.925293   15.751528 F F F # C
    5.040000   33.685486   16.467405 F F F # C
    5.040000   23.766726   17.899035 F F F # C
    5.040000   26.246416   17.899035 F F F # C
    5.040000   25.006605   18.614788 F F F # C
    5.040000   25.006605   20.046415 F F F # C
    5.040000   23.766726   20.762293 F F F # C
    5.040000   26.246416   20.762293 F F F # C
    5.040000   28.726105   17.899035 F F F # C
    5.040000   31.205797   17.899035 F F F # C
    5.040000   27.486227   18.614788 F F F # C
    5.040000   29.965916   18.614788 F F F # C
    5.040000   27.486227   20.046415 F F F # C
    5.040000   29.965916   20.046415 F F F # C
    5.040000   28.726105   20.762293 F F F # C
    5.040000   31.205797   20.762293 F F F # C
    5.040000   33.685486   17.899035 F F F # C
    5.040000   32.445602   18.614788 F F F # C
    5.040000   34.925293   18.614788 F F F # C
    5.040000   32.445602   20.046415 F F F # C
    5.040000   34.925293   20.046415 F F F # C
    5.040000   33.685486   20.762293 F F F # C
    5.040000   23.766726  108.092575 F F F # C
    5.040000   26.246416  108.092575 F F F # C
    5.040000   25.006605  108.808319 F F F # C
    5.040000   25.006605  110.239952 F F F # C
    5.040000   28.726105  108.092575 F F F # C
    5.040000   31.205797  108.092575 F F F # C
    5.040000   27.486227  108.808319 F F F # C
    5.040000   29.965916  108.808319 F F F # C
    5.040000   27.486227  110.239952 F F F # C
    5.040000   29.965916  110.239952 F F F # C
    5.040000   33.685486  108.092575 F F F # C
    5.040000   32.445602  108.808319 F F F # C
    5.040000   34.925293  108.808319 F F F # C
    5.040000   32.445602  110.239952 F F F # C
    5.040000   34.925293  110.239952 F F F # C
    5.040000   23.766726  110.955826 F F F # C
    5.040000   26.246416  110.955826 F F F # C
    5.040000   23.766726  112.387459 F F F # C
    5.040000   26.246416  112.387459 F F F # C
    5.040000   25.006605  113.103333 F F F # C
    5.040000   28.726105  110.955826 F F F # C
    5.040000   31.205797  110.955826 F F F # C
    5.040000   28.726105  112.387459 F F F # C
    5.040000   31.205797  112.387459 F F F # C
    5.040000   27.486227  113.103333 F F F # C
    5.040000   29.965916  113.103333 F F F # C
    5.040000   33.685486  110.955826 F F F # C
    5.040000   33.685486  112.387459 F F F # C
    5.040000   32.445602  113.103333 F F F # C
    5.040000   34.925293  113.103333 F F F # C
    5.040000   25.006605  114.534973 F F F # C
    5.040000   23.766726  115.250710 F F F # C
    5.040000   26.246416  115.250710 F F F # C
    5.040000   23.766726  116.682350 F F F # C
    5.040000   26.246416  116.682350 F F F # C
    5.040000   25.006605  117.398224 F F F # C
    5.040000   27.486227  114.534973 F F F # C
    5.040000   29.965916  114.534973 F F F # C
    5.040000   28.726105  115.250710 F F F # C
    5.040000   31.205797  115.250710 F F F # C
    5.040000   28.726105  116.682350 F F F # C
    5.040000   31.205797  116.682350 F F F # C
    5.040000   27.486227  117.398224 F F F # C
    5.040000   29.965916  117.398224 F F F # C
    5.040000   32.445602  114.534973 F F F # C
    5.040000   34.925293  114.534973 F F F # C
    5.040000   33.685486  115.250710 F F F # C
    5.040000   33.685486  116.682350 F F F # C
    5.040000   32.445602  117.398224 F F F # C
    5.040000   34.925293  117.398224 F F F # C
    5.040000   25.006605  118.829849 F F F # C
    5.040000   23.766726  119.545731 F F F # C
    5.040000   26.246416  119.545731 F F F # C
    5.040000   23.766726  120.977364 F F F # C
    5.040000   26.246416  120.977364 F F F # C
    5.040000   27.486227  118.829849 F F F # C
    5.040000   29.965916  118.829849 F F F # C
    5.040000   28.726105  119.545731 F F F # C
    5.040000   31.205797  119.545731 F F F # C
    5.040000   28.726105  120.977364 F F F # C
    5.040000   31.205797  120.977364 F F F # C
    5.040000   32.445602  118.829849 F F F # C
    5.040000   34.925293  118.829849 F F F # C
    5.040000   33.685486  119.545731 F F F # C
    5.040000   33.685486  120.977364 F F F # C
    5.040000   25.006605  121.693115 F F F # C
    5.040000   25.006605  123.124741 F F F # C
    5.040000   23.766726  123.840622 F F F # C
    5.040000   26.246416  123.840622 F F F # C
    5.040000   27.486227  121.693115 F F F # C
    5.040000   29.965916  121.693115 F F F # C
    5.040000   27.486227  123.124741 F F F # C
    5.040000   29.965916  123.124741 F F F # C
    5.040000   28.726105  123.840622 F F F # C
    5.040000   31.205797  123.840622 F F F # C
    5.040000   32.445602  121.693115 F F F # C
    5.040000   34.925293  121.693115 F F F # C
    5.040000   32.445602  123.124741 F F F # C
    5.040000   34.925293  123.124741 F F F # C
    5.040000   33.685486  123.840622 F F F # C
    5.040000   23.766726  125.272240 F F F # C
    5.040000   26.246416  125.272240 F F F # C
    5.040000   25.006605  125.988129 F F F # C
    5.040000   25.006605  127.419754 F F F # C
    5.040000   23.766726  128.135513 F F T # C
    5.040000   26.246416  128.135513 F F T # C
    5.040000   28.726105  125.272240 F F F # C
    5.040000   31.205797  125.272240 F F F # C
    5.040000   27.486227  125.988129 F F F # C
    5.040000   29.965916  125.988129 F F F # C
    5.040000   27.486227  127.419754 F F F # C
    5.040000   29.965916  127.419754 F F F # C
    5.040000   28.726105  128.135513 F F T # C
    5.040000   31.205797  128.135513 F F T # C
    5.040000   33.685486  125.272240 F F F # C
    5.040000   32.445602  125.988129 F F F # C
    5.040000   34.925293  125.988129 F F F # C
    5.040000   32.445602  127.419754 F F F # C
    5.040000   34.925293  127.419754 F F F # C
    5.040000   33.685486  128.135513 F F T # C
    5.040000   36.165104    0.719282 F F T # C
    5.040000   38.644794    0.719282 F F T # C
    5.040000   37.404987    1.435108 F F F # C
    5.040000   37.404987    2.866750 F F F # C
    5.040000   41.124485    0.719282 F F T # C
    5.040000   39.884678    1.435108 F F F # C
    5.040000   42.364368    1.435108 F F F # C
    5.040000   39.884678    2.866750 F F F # C
    5.040000   42.364368    2.866750 F F F # C
    5.040000   43.604179    0.719282 F F T # C
    5.040000   46.083866    0.719282 F F T # C
    5.040000   44.843983    1.435108 F F F # C
    5.040000   44.843983    2.866750 F F F # C
    5.040000   36.165104    3.582565 F F F # C
    5.040000   38.644794    3.582565 F F F # C
    5.040000   36.165104    5.014207 F F F # C
    5.040000   38.644794    5.014207 F F F # C
    5.040000   37.404987    5.730034 F F F # C
    5.040000   41.124485    3.582565 F F F # C
    5.040000   41.124485    5.014207 F F F # C
    5.040000   39.884678    5.730034 F F F # C
    5.040000   42.364368    5.730034 F F F # C
    5.040000   43.604179    3.582565 F F F # C
    5.040000   46.083866    3.582565 F F F # C
    5.040000   43.604179    5.014207 F F F # C
    5.040000   46.083866    5.014207 F F F # C
    5.040000   44.843983    5.730034 F F F # C
    5.040000   37.404987    7.161676 F F F # C
    5.040000   36.165104    7.877503 F F F # C
    5.040000   38.644794    7.877503 F F F # C
    5.040000   36.165104    9.309145 F F F # C
    5.040000   38.644794    9.309145 F F F # C
    5.040000   37.404987   10.024960 F F F # C
    5.040000   39.884678    7.161676 F F F # C
    5.040000   42.364368    7.161676 F F F # C
    5.040000   41.124485    7.877503 F F F # C
    5.040000   41.124485    9.309145 F F F # C
    5.040000   39.884678   10.024960 F F F # C
    5.040000   42.364368   10.024960 F F F # C
    5.040000   44.843983    7.161676 F F F # C
    5.040000   43.604179    7.877503 F F F # C
    5.040000   46.083866    7.877503 F F F # C
    5.040000   43.604179    9.309145 F F F # C
    5.040000   46.083866    9.309145 F F F # C
    5.040000   44.843983   10.024960 F F F # C
    5.040000   37.404987   11.456601 F F F # C
    5.040000   36.165104   12.172429 F F F # C
    5.040000   38.644794   12.172429 F F F # C
    5.040000   36.165104   13.604019 F F F # C
    5.040000   38.644794   13.604019 F F F # C
    5.040000   39.884678   11.456601 F F F # C
    5.040000   42.364368   11.456601 F F F # C
    5.040000   41.124485   12.172429 F F F # C
    5.040000   41.124485   13.604019 F F F # C
    5.040000   44.843983   11.456601 F F F # C
    5.040000   43.604179   12.172429 F F F # C
    5.040000   46.083866   12.172429 F F F # C
    5.040000   43.604179   13.604019 F F F # C
    5.040000   46.083866   13.604019 F F F # C
    5.040000   37.404987   14.319899 F F F # C
    5.040000   37.404987   15.751528 F F F # C
    5.040000   36.165104   16.467405 F F F # C
    5.040000   38.644794   16.467405 F F F # C
    5.040000   39.884678   14.319899 F F F # C
    5.040000   42.364368   14.319899 F F F # C
    5.040000   39.884678   15.751528 F F F # C
    5.040000   42.364368   15.751528 F F F # C
    5.040000   41.124485   16.467405 F F F # C
    5.040000   44.843983   14.319899 F F F # C
    5.040000   44.843983   15.751528 F F F # C
    5.040000   43.604179   16.467405 F F F # C
    5.040000   46.083866   16.467405 F F F # C
    5.040000   36.165104   17.899035 F F F # C
    5.040000   38.644794   17.899035 F F F # C
    5.040000   37.404987   18.614788 F F F # C
    5.040000   37.404987   20.046415 F F F # C
    5.040000   36.165104   20.762293 F F F # C
    5.040000   38.644794   20.762293 F F F # C
    5.040000   41.124485   17.899035 F F F # C
    5.040000   39.884678   18.614788 F F F # C
    5.040000   42.364368   18.614788 F F F # C
    5.040000   39.884678   20.046415 F F F # C
    5.040000   42.364368   20.046415 F F F # C
    5.040000   41.124485   20.762293 F F F # C
    5.040000   43.604179   17.899035 F F F # C
    5.040000   46.083866   17.899035 F F F # C
    5.040000   44.843983   18.614788 F F F # C
    5.040000   44.843983   20.046415 F F F # C
    5.040000   43.604179   20.762293 F F F # C
    5.040000   46.083866   20.762293 F F F # C
    5.040000   36.165104  108.092575 F F F # C
    5.040000   38.644794  108.092575 F F F # C
    5.040000   37.404987  108.808319 F F F # C
    5.040000   37.404987  110.239952 F F F # C
    5.040000   41.124485  108.092575 F F F # C
    5.040000   39.884678  108.808319 F F F # C
    5.040000   42.364368  108.808319 F F F # C
    5.040000   39.884678  110.239952 F F F # C
    5.040000   42.364368  110.239952 F F F # C
    5.040000   43.604179  108.092575 F F F # C
    5.040000   46.083866  108.092575 F F F # C
    5.040000   44.843983  108.808319 F F F # C
    5.040000   44.843983  110.239952 F F F # C
    5.040000   36.165104  110.955826 F F F # C
    5.040000   38.644794  110.955826 F F F # C
    5.040000   36.165104  112.387459 F F F # C
    5.040000   38.644794  112.387459 F F F # C
    5.040000   37.404987  113.103333 F F F # C
    5.040000   41.124485  110.955826 F F F # C
    5.040000   41.124485  112.387459 F F F # C
    5.040000   39.884678  113.103333 F F F # C
    5.040000   42.364368  113.103333 F F F # C
    5.040000   43.604179  110.955826 F F F # C
    5.040000   46.083866  110.955826 F F F # C
    5.040000   43.604179  112.387459 F F F # C
    5.040000   46.083866  112.387459 F F F # C
    5.040000   44.843983  113.103333 F F F # C
    5.040000   37.404987  114.534973 F F F # C
    5.040000   36.165104  115.250710 F F F # C
    5.040000   38.644794  115.250710 F F F # C
    5.040000   36.165104  116.682350 F F F # C
    5.040000   38.644794  116.682350 F F F # C
    5.040000   37.404987  117.398224 F F F # C
    5.040000   39.884678  114.534973 F F F # C
    5.040000   42.364368  114.534973 F F F # C
    5.040000   41.124485  115.250710 F F F # C
    5.040000   41.124485  116.682350 F F F # C
    5.040000   39.884678  117.398224 F F F # C
    5.040000   42.364368  117.398224 F F F # C
    5.040000   44.843983  114.534973 F F F # C
    5.040000   43.604179  115.250710 F F F # C
    5.040000   46.083866  115.250710 F F F # C
    5.040000   43.604179  116.682350 F F F # C
    5.040000   46.083866  116.682350 F F F # C
    5.040000   44.843983  117.398224 F F F # C
    5.040000   37.404987  118.829849 F F F # C
    5.040000   36.165104  119.545731 F F F # C
    5.040000   38.644794  119.545731 F F F # C
    5.040000   36.165104  120.977364 F F F # C
    5.040000   38.644794  120.977364 F F F # C
    5.040000   39.884678  118.829849 F F F # C
    5.040000   42.364368  118.829849 F F F # C
    5.040000   41.124485  119.545731 F F F # C
    5.040000   41.124485  120.977364 F F F # C
    5.040000   44.843983  118.829849 F F F # C
    5.040000   43.604179  119.545731 F F F # C
    5.040000   46.083866  119.545731 F F F # C
    5.040000   43.604179  120.977364 F F F # C
    5.040000   46.083866  120.977364 F F F # C
    5.040000   37.404987  121.693115 F F F # C
    5.040000   37.404987  123.124741 F F F # C
    5.040000   36.165104  123.840622 F F F # C
    5.040000   38.644794  123.840622 F F F # C
    5.040000   39.884678  121.693115 F F F # C
    5.040000   42.364368  121.693115 F F F # C
    5.040000   39.884678  123.124741 F F F # C
    5.040000   42.364368  123.124741 F F F # C
    5.040000   41.124485  123.840622 F F F # C
    5.040000   44.843983  121.693115 F F F # C
    5.040000   44.843983  123.124741 F F F # C
    5.040000   43.604179  123.840622 F F F # C
    5.040000   46.083866  123.840622 F F F # C
    5.040000   36.165104  125.272240 F F F # C
    5.040000   38.644794  125.272240 F F F # C
    5.040000   37.404987  125.988129 F F F # C
    5.040000   37.404987  127.419754 F F F # C
    5.040000   36.165104  128.135513 F F T # C
    5.040000   38.644794  128.135513 F F T # C
    5.040000   41.124485  125.272240 F F F # C
    5.040000   39.884678  125.988129 F F F # C
    5.040000   42.364368  125.988129 F F F # C
    5.040000   39.884678  127.419754 F F F # C
    5.040000   42.364368  127.419754 F F F # C
    5.040000   41.124485  128.135513 F F T # C
    5.040000   43.604179  125.272240 F F F # C
    5.040000   46.083866  125.272240 F F F # C
    5.040000   44.843983  125.988129 F F F # C
    5.040000   44.843983  127.419754 F F F # C
    5.040000   43.604179  128.135513 F F T # C
    5.040000   46.083866  128.135513 F F T # C
    5.040000   48.563557    0.719282 F F T # C
    5.040000   47.323673    1.435108 F F F # C
    5.040000   49.803368    1.435108 F F F # C
    5.040000   47.323673    2.866750 F F F # C
    5.040000   49.803368    2.866750 F F F # C
    5.040000   51.043175    0.719282 F F T # C
    5.040000   53.522869    0.719282 F F T # C
    5.040000   52.283058    1.435108 F F F # C
    5.040000   54.762749    1.435108 F F F # C
    5.040000   52.283058    2.866750 F F F # C
    5.040000   54.762749    2.866750 F F F # C
    5.040000   56.002556    0.719282 F F T # C
    5.040000   58.482246    0.719282 F F T # C
    5.040000   57.242435    1.435108 F F F # C
    5.040000   57.242435    2.866750 F F F # C
    5.040000   48.563557    3.582565 F F F # C
    5.040000   48.563557    5.014207 F F F # C
    5.040000   47.323673    5.730034 F F F # C
    5.040000   49.803368    5.730034 F F F # C
    5.040000   51.043175    3.582565 F F F # C
    5.040000   53.522869    3.582565 F F F # C
    5.040000   51.043175    5.014207 F F F # C
    5.040000   53.522869    5.014207 F F F # C
    5.040000   52.283058    5.730034 F F F # C
    5.040000   54.762749    5.730034 F F F # C
    5.040000   56.002556    3.582565 F F F # C
    5.040000   58.482246    3.582565 F F F # C
    5.040000   56.002556    5.014207 F F F # C
    5.040000   58.482246    5.014207 F F F # C
    5.040000   57.242435    5.730034 F F F # C
    5.040000   47.323673    7.161676 F F F # C
    5.040000   49.803368    7.161676 F F F # C
    5.040000   48.563557    7.877503 F F F # C
    5.040000   48.563557    9.309145 F F F # C