graphene6-3-CO                          
   1.00000000000000     
    30.3878126369420194   -0.0018190939119081    0.0000000000000000
    -0.0008816618045304   14.8290159484836330    0.0000000000000000
     0.0000000000000000    0.0000000000000000   13.1110054270758773
   C    O 
    73     1
Selective dynamics
Direct
  0.5000000000000000  0.1250000000000000  0.0555555999999982   F   F   F
  0.5000000000000000  0.0416665999999992  0.1111110000000011   F   F   F
  0.5000000000000000  0.2083330000000032  0.1111110000000011   F   F   F
  0.5000000000000000  0.0416665999999992  0.2222220000000021   F   F   F
  0.5000000000000000  0.2083330000000032  0.2222220000000021   F   F   F
  0.5000000000000000  0.2916659999999993  0.0555555999999982   F   F   F
  0.5000000000000000  0.4583319999999986  0.0555555999999982   F   F   F
  0.5000000000000000  0.3749990000000025  0.1111110000000011   F   F   F
  0.5000000000000000  0.3749990000000025  0.2222220000000021   F   F   F
  0.5000000000000000  0.6249990000000025  0.0555555999999982   F   F   F
  0.5000000000000000  0.5416659999999993  0.1111110000000011   F   F   F
  0.5000000000000000  0.7083319999999986  0.1111110000000011   F   F   F
  0.5000000000000000  0.5416659999999993  0.2222220000000021   F   F   F
  0.5000000000000000  0.7083319999999986  0.2222220000000021   F   F   F
  0.5000000000000000  0.7916650000000018  0.0555555999999982   F   F   F
  0.5000000000000000  0.9583319999999986  0.0555555999999982   F   F   F
  0.5000000000000000  0.8749979999999979  0.1111110000000011   F   F   F
  0.5000000000000000  0.8749979999999979  0.2222220000000021   F   F   F
  0.5000000000000000  0.1250000000000000  0.2777779999999979   F   F   F
  0.5000000000000000  0.1250000000000000  0.3888889999999989   F   F   F
  0.5000000000000000  0.0416665999999992  0.4444439999999972   F   F   F
  0.5000000000000000  0.2083330000000032  0.4444439999999972   F   F   F
  0.5000000000000000  0.2916659999999993  0.2777779999999979   F   F   F
  0.5000000000000000  0.4583319999999986  0.2777779999999979   F   F   F
  0.5000000000000000  0.2916659999999993  0.3888889999999989   F   F   F
  0.5000000000000000  0.4583319999999986  0.3888889999999989   F   F   F
  0.5000000000000000  0.3749990000000025  0.4444439999999972   F   F   F
  0.5000000000000000  0.6249990000000025  0.2777779999999979   F   F   F
  0.5000000000000000  0.6249990000000025  0.3888889999999989   F   F   F
  0.5000000000000000  0.5416659999999993  0.4444439999999972   F   F   F
  0.5000000000000000  0.7083319999999986  0.4444439999999972   F   F   F
  0.5000000000000000  0.7916650000000018  0.2777779999999979   F   F   F
  0.5000000000000000  0.9583319999999986  0.2777779999999979   F   F   F
  0.5000000000000000  0.7916650000000018  0.3888889999999989   F   F   F
  0.5000000000000000  0.9583319999999986  0.3888889999999989   F   F   F
  0.5000000000000000  0.8749979999999979  0.4444439999999972   F   F   F
  0.5000000000000000  0.0416665999999992  0.5555560000000028   F   F   F
  0.5000000000000000  0.2083330000000032  0.5555560000000028   F   F   F
  0.5000000000000000  0.1250000000000000  0.6111110000000011   F   F   F
  0.5000000000000000  0.1250000000000000  0.7222220000000021   F   F   F
  0.5000000000000000  0.3749990000000025  0.5555560000000028   F   F   F
  0.5000000000000000  0.2916659999999993  0.6111110000000011   F   F   F
  0.5000000000000000  0.4583319999999986  0.6111110000000011   F   F   F
  0.5000000000000000  0.2916659999999993  0.7222220000000021   F   F   F
  0.5000000000000000  0.4583319999999986  0.7222220000000021   F   F   F
  0.5000000000000000  0.5416659999999993  0.5555560000000028   F   F   F
  0.5000000000000000  0.7083319999999986  0.5555560000000028   F   F   F
  0.5000000000000000  0.6249990000000025  0.6111110000000011   F   F   F
  0.5000000000000000  0.6249990000000025  0.7222220000000021   F   F   F
  0.5000000000000000  0.8749979999999979  0.5555560000000028   F   F   F
  0.5000000000000000  0.7916650000000018  0.6111110000000011   F   F   F
  0.5000000000000000  0.9583319999999986  0.6111110000000011   F   F   F
  0.5000000000000000  0.7916650000000018  0.7222220000000021   F   F   F
  0.5000000000000000  0.9583319999999986  0.7222220000000021   F   F   F
  0.5000000000000000  0.0416665999999992  0.7777779999999979   F   F   F
  0.5000000000000000  0.2083330000000032  0.7777779999999979   F   F   F
  0.5000000000000000  0.0416665999999992  0.8888889999999989   F   F   F
  0.5000000000000000  0.2083330000000032  0.8888889999999989   F   F   F
  0.5000000000000000  0.1250000000000000  0.9444439999999972   F   F   F
  0.5000000000000000  0.3749990000000025  0.7777779999999979   F   F   F
  0.5000000000000000  0.3749990000000025  0.8888889999999989   F   F   F
  0.5000000000000000  0.2916659999999993  0.9444439999999972   F   F   F
  0.5000000000000000  0.4583319999999986  0.9444439999999972   F   F   F
  0.5000000000000000  0.5416659999999993  0.7777779999999979   F   F   F
  0.5000000000000000  0.7083319999999986  0.7777779999999979   F   F   F
  0.5000000000000000  0.5416659999999993  0.8888889999999989   F   F   F
  0.5000000000000000  0.7083319999999986  0.8888889999999989   F   F   F
  0.5000000000000000  0.6249990000000025  0.9444439999999972   F   F   F
  0.5000000000000000  0.8749979999999979  0.7777779999999979   F   F   F
  0.5000000000000000  0.8749979999999979  0.8888889999999989   F   F   F
  0.5000000000000000  0.7916650000000018  0.9444439999999972   F   F   F
  0.5000000000000000  0.9583319999999986  0.9444439999999972   F   F   F
  0.6332334890069430  0.5038671080139966  0.5000000000000000   T   T   T
  0.6329251669062499  0.4110140676906860  0.5000000000000000   T   T   T
 
  0.00000000E+00  0.00000000E+00  0.00000000E+00
  0.00000000E+00  0.00000000E+00  0.00000000E+00
  0.00000000E+00  0.00000000E+00  0.00000000E+00
  0.00000000E+00  0.00000000E+00  0.00000000E+00
  0.00000000E+00  0.00000000E+00  0.00000000E+00
  0.00000000E+00  0.00000000E+00  0.00000000E+00
  0.00000000E+00  0.00000000E+00  0.00000000E+00
  0.00000000E+00  0.00000000E+00  0.00000000E+00
  0.00000000E+00  0.00000000E+00  0.00000000E+00
  0.00000000E+00  0.00000000E+00  0.00000000E+00
  0.00000000E+00  0.00000000E+00  0.00000000E+00
  0.00000000E+00  0.00000000E+00  0.00000000E+00
  0.00000000E+00  0.00000000E+00  0.00000000E+00
  0.00000000E+00  0.00000000E+00  0.00000000E+00
  0.00000000E+00  0.00000000E+00  0.00000000E+00
  0.00000000E+00  0.00000000E+00  0.00000000E+00
  0.00000000E+00  0.00000000E+00  0.00000000E+00
  0.00000000E+00  0.00000000E+00  0.00000000E+00
  0.00000000E+00  0.00000000E+00  0.00000000E+00
  0.00000000E+00  0.00000000E+00  0.00000000E+00
  0.00000000E+00  0.00000000E+00  0.00000000E+00
  0.00000000E+00  0.00000000E+00  0.00000000E+00
  0.00000000E+00  0.00000000E+00  0.00000000E+00
  0.00000000E+00  0.00000000E+00  0.00000000E+00
  0.00000000E+00  0.00000000E+00  0.00000000E+00
  0.00000000E+00  0.00000000E+00  0.00000000E+00
  0.00000000E+00  0.00000000E+00  0.00000000E+00
  0.00000000E+00  0.00000000E+00  0.00000000E+00
  0.00000000E+00  0.00000000E+00  0.00000000E+00
  0.00000000E+00  0.00000000E+00  0.00000000E+00
  0.00000000E+00  0.00000000E+00  0.00000000E+00
  0.00000000E+00  0.00000000E+00  0.00000000E+00
  0.00000000E+00  0.00000000E+00  0.00000000E+00
  0.00000000E+00  0.00000000E+00  0.00000000E+00
  0.00000000E+00  0.00000000E+00  0.00000000E+00
  0.00000000E+00  0.00000000E+00  0.00000000E+00
  0.00000000E+00  0.00000000E+00  0.00000000E+00
  0.00000000E+00  0.00000000E+00  0.00000000E+00
  0.00000000E+00  0.00000000E+00  0.00000000E+00
  0.00000000E+00  0.00000000E+00  0.00000000E+00
  0.00000000E+00  0.00000000E+00  0.00000000E+00
  0.00000000E+00  0.00000000E+00  0.00000000E+00
  0.00000000E+00  0.00000000E+00  0.00000000E+00
  0.00000000E+00  0.00000000E+00  0.00000000E+00
  0.00000000E+00  0.00000000E+00  0.00000000E+00
  0.00000000E+00  0.00000000E+00  0.00000000E+00
  0.00000000E+00  0.00000000E+00  0.00000000E+00
  0.00000000E+00  0.00000000E+00  0.00000000E+00
  0.00000000E+00  0.00000000E+00  0.00000000E+00
  0.00000000E+00  0.00000000E+00  0.00000000E+00
  0.00000000E+00  0.00000000E+00  0.00000000E+00
  0.00000000E+00  0.00000000E+00  0.00000000E+00
  0.00000000E+00  0.00000000E+00  0.00000000E+00
  0.00000000E+00  0.00000000E+00  0.00000000E+00
  0.00000000E+00  0.00000000E+00  0.00000000E+00
  0.00000000E+00  0.00000000E+00  0.00000000E+00
  0.00000000E+00  0.00000000E+00  0.00000000E+00
  0.00000000E+00  0.00000000E+00  0.00000000E+00
  0.00000000E+00  0.00000000E+00  0.00000000E+00
  0.00000000E+00  0.00000000E+00  0.00000000E+00
  0.00000000E+00  0.00000000E+00  0.00000000E+00
  0.00000000E+00  0.00000000E+00  0.00000000E+00
  0.00000000E+00  0.00000000E+00  0.00000000E+00
  0.00000000E+00  0.00000000E+00  0.00000000E+00
  0.00000000E+00  0.00000000E+00  0.00000000E+00
  0.00000000E+00  0.00000000E+00  0.00000000E+00
  0.00000000E+00  0.00000000E+00  0.00000000E+00
  0.00000000E+00  0.00000000E+00  0.00000000E+00
  0.00000000E+00  0.00000000E+00  0.00000000E+00
  0.00000000E+00  0.00000000E+00  0.00000000E+00
  0.00000000E+00  0.00000000E+00  0.00000000E+00
  0.00000000E+00  0.00000000E+00  0.00000000E+00
  0.00000000E+00  0.00000000E+00  0.00000000E+00
  0.00000000E+00  0.00000000E+00  0.00000000E+00
